%chk=structure.chk
NProcShared=8
#HF/6-31G* SCF=tight opt=Z-Matrix Freq

Optimization of phi 250

0   1
    H
    C    1      b2
    H    2      b3    1      a3
    H    2      b4    3      a4    1      t4
    C    2      b5    4      a5    1      t5
    O    5      b6    2      a6    1      t6
    N    5      b7    2      a7    1      t7
    H    7      b8    5      a8    2      t8
    C    7      b9    5      a9    2      t9
    H    9     b10    7     a10    5     t10
    C    9     b11    7     a11    5     t11
    H   11     b12    9     a12    7     t12
    H   11     b13    9     a13    7     t13
    H   11     b14    9     a14    7     t14
    C    9     b15    7     a15    5     t15
    O   15     b16    9     a16    7     t16
    N   15     b17    9     a17    7     t17
    H   17     b18   15     a18    9     t18
    C   17     b19   15     a19    9     t19
    H   19     b20   17     a20   15     t20
    C   19     b21   17     a21   15     t21
    H   21     b22   19     a22   17     t22
    H   21     b23   19     a23   17     t23
    H   21     b24   19     a24   17     t24
    C   19     b25   17     a25   15     t25
    O   25     b26   19     a26   17     t26
    N   25     b27   19     a27   17     t27
    H   27     b28   25     a28   19     t28
    C   27     b29   25     a29   19     t29
    H   29     b30   27     a30   25     t30
    C   29     b31   27     a31   25     t31
    H   31     b32   29     a32   27     t32
    H   31     b33   29     a33   27     t33
    H   31     b34   29     a34   27     t34
    C   29     b35   27     a35   25     t35
    O   35     b36   29     a36   27     t36
    N   35     b37   29     a37   27     t37
    H   37     b38   35     a38   29     t38
    C   37     b39   35     a39   29     t39
    H   39     b40   37     a40   35     t40
    H   39     b41   37     a41   35     t41
    H   39     b42   37     a42   35     t42
Variables
b2=   1.0854
b3=   1.0834
a3= 108.5528
b4=   1.081
a4= 109.7337
t4= 117.9275
b5=   1.513
a5= 108.8164
t5= 117.9318
b6=   1.2028
a6= 121.9787
t6=  82.9497
b7=   1.3515
a7= 115.5801
t7= 263.9571
b8=   0.9954
a8= 120.368
t8=   8.3518
b9=   1.4426
a9= 121.619
t9= 172.9206
b10=   1.0842
a10= 109.0776
t10= -40.3468
b11=   1.5363
a11= 111.5569
t11=  79.5897
b12=   1.0845
a12= 110.4554
t12=  61.5863
b13=   1.0854
a13= 112.1526
t13= 182.8226
b14=   1.0808
a14= 108.8394
t14= -57.9169
b15=   1.528
a15= 108.0402
t15= 203.9368
b16=   1.194
a16= 121.4565
t16=  -0.8493
b17=   1.392
a17= 117.0999
t17= 172.1857
b18=   1.0011
a18= 111.8624
t18=  16.2762
b19=   1.4714
a19= 117.132
t19= 250.0
b20=   1.0815
a20= 106.5202
t20= -48.8063
b21=   1.5244
a21= 114.1411
t21=  72.7051
b22=   1.0827
a22= 110.9708
t22=  58.9055
b23=   1.0846
a23= 110.1928
t23= -181.8214
b24=   1.0847
a24= 110.6618
t24= -62.5999
b25=   1.5289
a25= 105.3954
t25= 194.9789
b26=   1.205
a26= 120.9116
t26= -88.1531
b27=   1.3413
a27= 115.6666
t27=  90.0
b28=   0.9966
a28= 120.8736
t28=  -3.0502
b29=   1.4438
a29= 122.2955
t29= -175.0863
b30=   1.0824
a30= 107.9352
t30= -41.1567
b31=   1.5347
a31= 112.3343
t31=  79.1759
b32=   1.0843
a32= 110.2578
t32=  60.4963
b33=   1.0851
a33= 111.1317
t33= -179.0921
b34=   1.0821
a34= 109.3841
t34= -59.3152
b35=   1.5257
a35= 107.2818
t35= -159.7227
b36=   1.2032
a36= 121.2854
t36= -26.9062
b37=   1.345
a37= 115.6923
t37= -204.4079
b38=   0.9934
a38= 119.0379
t38=  -9.5378
b39=   1.4487
a39= 121.6947
t39= 179.0466
b40=   1.0803
a40= 109.9276
t40= -48.9699
b41=   1.084
a41= 111.6131
t41=  71.4433
b42=   1.0816
a42= 108.6669
t42= -168.2554
