%chk=structure.chk
NProcShared=8
#HF/6-31G* SCF=tight opt=Z-Matrix Freq

Optimization of phi -169.2407

0   1
    H
    C    1      b2
    H    2      b3    1      a3
    H    2      b4    3      a4    1      t4
    C    2      b5    4      a5    1      t5
    O    5      b6    2      a6    1      t6
    N    5      b7    2      a7    1      t7
    H    7      b8    5      a8    2      t8
    C    7      b9    5      a9    2      t9
    H    9     b10    7     a10    5     t10
    C    9     b11    7     a11    5     t11
    H   11     b12    9     a12    7     t12
    H   11     b13    9     a13    7     t13
    H   11     b14    9     a14    7     t14
    C    9     b15    7     a15    5     t15
    O   15     b16    9     a16    7     t16
    N   15     b17    9     a17    7     t17
    H   17     b18   15     a18    9     t18
    C   17     b19   15     a19    9     t19
    H   19     b20   17     a20   15     t20
    C   19     b21   17     a21   15     t21
    H   21     b22   19     a22   17     t22
    H   21     b23   19     a23   17     t23
    H   21     b24   19     a24   17     t24
    C   19     b25   17     a25   15     t25
    O   25     b26   19     a26   17     t26
    N   25     b27   19     a27   17     t27
    H   27     b28   25     a28   19     t28
    C   27     b29   25     a29   19     t29
    H   29     b30   27     a30   25     t30
    C   29     b31   27     a31   25     t31
    H   31     b32   29     a32   27     t32
    H   31     b33   29     a33   27     t33
    H   31     b34   29     a34   27     t34
    C   29     b35   27     a35   25     t35
    O   35     b36   29     a36   27     t36
    N   35     b37   29     a37   27     t37
    H   37     b38   35     a38   29     t38
    C   37     b39   35     a39   29     t39
    H   39     b40   37     a40   35     t40
    H   39     b41   37     a41   35     t41
    H   39     b42   37     a42   35     t42
Variables
b2=   1.0816
b3=   1.0832
a3= 109.6804
b4=   1.0847
a4= 108.627
t4= 117.7386
b5=   1.5129
a5= 108.5368
t5= 117.6528
b6=   1.2032
a6= 121.7728
t6=  41.1744
b7=   1.351
a7= 115.8183
t7= 219.4966
b8=   0.9951
a8= 120.5598
t8=  11.4945
b9=   1.4419
a9= 121.5462
t9= 176.5942
b10=   1.085
a10= 108.8952
t10= -40.8485
b11=   1.5361
a11= 111.6299
t11=  79.2113
b12=   1.0843
a12= 110.4314
t12=  61.7613
b13=   1.0855
a13= 112.2314
t13= 182.8626
b14=   1.0808
a14= 108.8533
t14= -57.8207
b15=   1.5276
a15= 107.9394
t15= 203.6435
b16=   1.1949
a16= 121.6567
t16=  -0.5911
b17=   1.3843
a17= 116.4631
t17= 172.913
b18=   0.9992
a18= 112.2266
t18=  10.7829
b19=   1.4671
a19= 118.2357
t19= 240.0
b20=   1.0815
a20= 107.0903
t20= -21.3771
b21=   1.5287
a21= 112.1274
t21=  98.7425
b22=   1.0869
a22= 110.9745
t22=  59.8326
b23=   1.0806
a23= 109.881
t23= -180.6257
b24=   1.0847
a24= 110.5192
t24= -60.4454
b25=   1.5296
a25= 112.8502
t25= 223.7253
b26=   1.2059
a26= 119.4193
t26= 180.8675
b27=   1.3393
a27= 117.0178
t27=   0.0
b28=   0.9963
a28= 119.9621
t28=   8.1721
b29=   1.4433
a29= 121.7255
t29= 176.6468
b30=   1.0834
a30= 108.5171
t30= -37.3056
b31=   1.5344
a31= 111.8808
t31=  82.8061
b32=   1.0845
a32= 110.2495
t32=  60.9931
b33=   1.085
a33= 111.2601
t33= 181.4672
b34=   1.082
a34= 109.2303
t34= -58.7875
b35=   1.526
a35= 107.5249
t35= 204.042
b36=   1.2034
a36= 121.5668
t36= -23.1445
b37=   1.3454
a37= 115.541
t37= 159.0929
b38=   0.9935
a38= 118.9806
t38=  -9.8517
b39=   1.4485
a39= 121.6473
t39= 179.8656
b40=   1.0804
a40= 109.9508
t40= -49.9857
b41=   1.084
a41= 111.6253
t41=  70.447
b42=   1.0816
a42= 108.6494
t42= -169.2407
