%chk=structure.chk
NProcShared=8
#HF/6-31G* SCF=tight opt=Z-Matrix Freq

Optimization of phi 220.0

0   1
    H
    C    1      b2
    H    2      b3    1      a3
    H    2      b4    3      a4    1      t4
    C    2      b5    4      a5    1      t5
    O    5      b6    2      a6    1      t6
    N    5      b7    2      a7    1      t7
    H    7      b8    5      a8    2      t8
    C    7      b9    5      a9    2      t9
    H    9     b10    7     a10    5     t10
    C    9     b11    7     a11    5     t11
    H   11     b12    9     a12    7     t12
    H   11     b13    9     a13    7     t13
    H   11     b14    9     a14    7     t14
    C    9     b15    7     a15    5     t15
    O   15     b16    9     a16    7     t16
    N   15     b17    9     a17    7     t17
    H   17     b18   15     a18    9     t18
    C   17     b19   15     a19    9     t19
    H   19     b20   17     a20   15     t20
    C   19     b21   17     a21   15     t21
    H   21     b22   19     a22   17     t22
    H   21     b23   19     a23   17     t23
    H   21     b24   19     a24   17     t24
    C   19     b25   17     a25   15     t25
    O   25     b26   19     a26   17     t26
    N   25     b27   19     a27   17     t27
    H   27     b28   25     a28   19     t28
    C   27     b29   25     a29   19     t29
    H   29     b30   27     a30   25     t30
    C   29     b31   27     a31   25     t31
    H   31     b32   29     a32   27     t32
    H   31     b33   29     a33   27     t33
    H   31     b34   29     a34   27     t34
    C   29     b35   27     a35   25     t35
    O   35     b36   29     a36   27     t36
    N   35     b37   29     a37   27     t37
    H   37     b38   35     a38   29     t38
    C   37     b39   35     a39   29     t39
    H   39     b40   37     a40   35     t40
    H   39     b41   37     a41   35     t41
    H   39     b42   37     a42   35     t42
Variables
b2=   1.0817
b3=   1.0832
a3= 109.6648
b4=   1.0847
a4= 108.6661
t4= 117.7075
b5=   1.5129
a5= 108.5261
t5= 117.6084
b6=   1.2033
a6= 121.7412
t6=  42.3326
b7=   1.3507
a7= 115.827
t7= 220.6918
b8=   0.9953
a8= 120.6071
t8=  11.4738
b9=   1.442
a9= 121.5406
t9= 176.4169
b10=   1.0847
a10= 108.8284
t10= -40.7069
b11=   1.5352
a11= 111.802
t11=  79.4969
b12=   1.0844
a12= 110.3971
t12=  61.5144
b13=   1.0853
a13= 112.04
t13= 182.4373
b14=   1.0809
a14= 108.9329
t14= -58.0861
b15=   1.5273
a15= 107.7674
t15= 203.5662
b16=   1.2021
a16= 121.7714
t16=  -1.109
b17=   1.3609
a17= 116.3173
t17= 173.4154
b18=   0.9962
a18= 116.0803
t18=   3.4029
b19=   1.4661
a19= 119.7673
t19= 220.0
b20=   1.0813
a20= 107.651
t20=  11.4356
b21=   1.5218
a21= 110.4169
t21= 131.8231
b22=   1.0825
a22= 110.7246
t22=  61.7535
b23=   1.0834
a23= 110.2322
t23= -179.2636
b24=   1.0852
a24= 110.2728
t24= -59.673
b25=   1.5319
a25= 108.3776
t25= 253.5681
b26=   1.2039
a26= 121.5353
t26= -90.5165
b27=   1.3441
a27= 114.8441
t27=  90.0
b28=   0.9988
a28= 119.8138
t28= -10.5922
b29=   1.4441
a29= 121.6761
t29= -174.738
b30=   1.0817
a30= 107.5597
t30= -40.2358
b31=   1.5346
a31= 112.4627
t31=  79.9022
b32=   1.0843
a32= 110.2058
t32=  60.2921
b33=   1.0854
a33= 111.0997
t33= -179.3614
b34=   1.0824
a34= 109.4059
t34= -59.5541
b35=   1.5248
a35= 107.6236
t35= -158.9887
b36=   1.2023
a36= 121.3865
t36= -31.6472
b37=   1.3469
a37= 115.6174
t37= -208.8409
b38=   0.9933
a38= 118.972
t38= -10.6405
b39=   1.448
a39= 121.6449
t39= 179.1691
b40=   1.0803
a40= 109.8631
t40= -48.4854
b41=   1.0842
a41= 111.7013
t41=  71.8866
b42=   1.0818
a42= 108.7182
t42= -167.7497
