%chk=structure.chk
NProcShared=8
#HF/6-31G* SCF=tight opt=Z-Matrix Freq

Optimization of phi 450

0   1
    H
    C    1      b2
    H    2      b3    1      a3
    H    2      b4    3      a4    1      t4
    C    2      b5    4      a5    1      t5
    O    5      b6    2      a6    1      t6
    N    5      b7    2      a7    1      t7
    H    7      b8    5      a8    2      t8
    C    7      b9    5      a9    2      t9
    H    9     b10    7     a10    5     t10
    C    9     b11    7     a11    5     t11
    H   11     b12    9     a12    7     t12
    H   11     b13    9     a13    7     t13
    H   11     b14    9     a14    7     t14
    C    9     b15    7     a15    5     t15
    O   15     b16    9     a16    7     t16
    N   15     b17    9     a17    7     t17
    H   17     b18   15     a18    9     t18
    C   17     b19   15     a19    9     t19
    H   19     b20   17     a20   15     t20
    C   19     b21   17     a21   15     t21
    H   21     b22   19     a22   17     t22
    H   21     b23   19     a23   17     t23
    H   21     b24   19     a24   17     t24
    C   19     b25   17     a25   15     t25
    O   25     b26   19     a26   17     t26
    N   25     b27   19     a27   17     t27
    H   27     b28   25     a28   19     t28
    C   27     b29   25     a29   19     t29
    H   29     b30   27     a30   25     t30
    C   29     b31   27     a31   25     t31
    H   31     b32   29     a32   27     t32
    H   31     b33   29     a33   27     t33
    H   31     b34   29     a34   27     t34
    C   29     b35   27     a35   25     t35
    O   35     b36   29     a36   27     t36
    N   35     b37   29     a37   27     t37
    H   37     b38   35     a38   29     t38
    C   37     b39   35     a39   29     t39
    H   39     b40   37     a40   35     t40
    H   39     b41   37     a41   35     t41
    H   39     b42   37     a42   35     t42
Variables
b2=   1.0805
b3=   1.0841
a3= 110.1598
b4=   1.0856
a4= 108.3416
t4= 118.3619
b5=   1.5106
a5= 108.5636
t5= 117.9349
b6=   1.2066
a6= 121.6637
t6=  29.8078
b7=   1.3512
a7= 116.2231
t7= 207.2807
b8=   0.9947
a8= 118.6133
t8=  10.0412
b9=   1.4456
a9= 122.6052
t9= 178.6376
b10=   1.0831
a10= 106.0252
t10=  28.1809
b11=   1.5256
a11= 110.6486
t11= 146.2356
b12=   1.0852
a12= 111.2022
t12=  62.6254
b13=   1.0807
a13= 110.7061
t13= 182.0536
b14=   1.0836
a14= 109.5083
t14= -57.6217
b15=   1.5382
a15= 112.5749
t15= 271.1989
b16=   1.1915
a16= 120.952
t16= -136.2431
b17=   1.4097
a17= 116.6752
t17=  36.6103
b18=   1.0052
a18= 105.4732
t18= 207.8271
b19=   1.4798
a19= 116.5437
t19= 450.0
b20=   1.0806
a20= 107.3007
t20= -57.3544
b21=   1.525
a21= 114.0443
t21=  65.1452
b22=   1.0821
a22= 110.8564
t22=  60.709
b23=   1.0852
a23= 110.0775
t23= -179.8745
b24=   1.0837
a24= 110.7546
t24= -60.1358
b25=   1.5296
a25= 104.8428
t25= 186.9029
b26=   1.2054
a26= 120.925
t26= -88.8219
b27=   1.3448
a27= 115.97
t27=  90.0
b28=   1.0004
a28= 119.8037
t28=  -6.9661
b29=   1.4476
a29= 120.7642
t29= -173.3975
b30=   1.0821
a30= 107.7197
t30= -46.6219
b31=   1.534
a31= 112.9072
t31=  73.5226
b32=   1.0837
a32= 110.1847
t32=  60.3819
b33=   1.0859
a33= 110.682
t33= -179.6016
b34=   1.0815
a34= 109.6151
t34= -59.9151
b35=   1.5232
a35= 107.8421
t35= -165.9595
b36=   1.204
a36= 121.1148
t36= -45.4916
b37=   1.345
a37= 116.0154
t37= -222.5948
b38=   0.9931
a38= 118.9191
t38= -10.7482
b39=   1.4482
a39= 121.6055
t39= 179.412
b40=   1.0805
a40= 109.9367
t40= -50.1813
b41=   1.084
a41= 111.6163
t41=  70.182
b42=   1.0817
a42= 108.6778
t42= -169.4666
