%chk=structure.chk
NProcShared=8
#P hf/6-31G* Opt=(Tight,CalcFC) Freq SCF(Conver=6) Test

Optimization of phi 500

0   1
    H
    C    1      b2
    H    2      b3    1      a3
    H    2      b4    3      a4    1      t4
    C    2      b5    4      a5    1      t5
    O    5      b6    2      a6    1      t6
    N    5      b7    2      a7    1      t7
    H    7      b8    5      a8    2      t8
    C    7      b9    5      a9    2      t9
    H    9     b10    7     a10    5     t10
    C    9     b11    7     a11    5     t11
    H   11     b12    9     a12    7     t12
    H   11     b13    9     a13    7     t13
    H   11     b14    9     a14    7     t14
    C    9     b15    7     a15    5     t15
    O   15     b16    9     a16    7     t16
    N   15     b17    9     a17    7     t17
    H   17     b18   15     a18    9     t18
    C   17     b19   15     a19    9     t19
    H   19     b20   17     a20   15     t20
    C   19     b21   17     a21   15     t21
    H   21     b22   19     a22   17     t22
    H   21     b23   19     a23   17     t23
    H   21     b24   19     a24   17     t24
    C   19     b25   17     a25   15     t25
    O   25     b26   19     a26   17     t26
    N   25     b27   19     a27   17     t27
    H   27     b28   25     a28   19     t28
    C   27     b29   25     a29   19     t29
    H   29     b30   27     a30   25     t30
    C   29     b31   27     a31   25     t31
    H   31     b32   29     a32   27     t32
    H   31     b33   29     a33   27     t33
    H   31     b34   29     a34   27     t34
    C   29     b35   27     a35   25     t35
    O   35     b36   29     a36   27     t36
    N   35     b37   29     a37   27     t37
    H   37     b38   35     a38   29     t38
    C   37     b39   35     a39   29     t39
    H   39     b40   37     a40   35     t40
    H   39     b41   37     a41   35     t41
    H   39     b42   37     a42   35     t42
Variables
b2=   1.081
b3=   1.0834
a3= 110.0921
b4=   1.0849
a4= 108.8107
t4= 118.4346
b5=   1.5085
a5= 108.1517
t5= 117.0939
b6=   1.2068
a6= 121.9171
t6=  47.4838
b7=   1.3568
a7= 116.8354
t7= 227.9983
b8=   0.9953
a8= 117.8515
t8=  -6.5831
b9=   1.4538
a9= 121.9547
t9= 193.2992
b10=   1.0814
a10= 106.908
t10=  14.83
b11=   1.5272
a11= 110.4184
t11= 133.9166
b12=   1.0868
a12= 111.0736
t12=  60.2098
b13=   1.0797
a13= 109.9999
t13= 179.6994
b14=   1.0844
a14= 110.1271
t14= -59.9946
b15=   1.5329
a15= 115.218
t15= 260.9241
b16=   1.1998
a16= 118.3301
t16= -171.8769
b17=   1.3591
a17= 118.722
t17=  16.6412
b18=   0.9944
a18= 116.8253
t18= 344.8787
b19=   1.4577
a19= 121.1181
t19= 500.0
b20=   1.0807
a20= 106.6757
t20=  -2.8842
b21=   1.5321
a21= 111.1005
t21= 114.8547
b22=   1.0861
a22= 110.6693
t22=  61.9573
b23=   1.0807
a23= 110.7013
t23= -177.537
b24=   1.083
a24= 108.9489
t24= -57.1026
b25=   1.5326
a25= 115.2068
t25= 239.5452
b26=   1.2024
a26= 118.338
t26= 182.683
b27=   1.3521
a27= 118.95
t27=   0.0
b28=   0.9959
a28= 118.7088
t28=  25.9588
b29=   1.4582
a29= 120.2157
t29= 180.9211
b30=   1.0843
a30= 109.0371
t30= -49.0397
b31=   1.5294
a31= 111.9771
t31=  71.6873
b32=   1.0821
a32= 109.7949
t32=  60.2025
b33=   1.086
a33= 110.0112
t33= 179.6503
b34=   1.0802
a34= 110.1262
t34= -60.773
b35=   1.5282
a35= 107.487
t35= 191.1889
b36=   1.2041
a36= 120.9935
t36= -62.7846
b37=   1.344
a37= 115.9473
t37= 119.3762
b38=   0.9933
a38= 118.2703
t38= -12.8325
b39=   1.4481
a39= 121.1408
t39= 185.3658
b40=   1.0818
a40= 108.7006
t40= -171.3156
b41=   1.0803
a41= 109.72
t41= -52.2675
b42=   1.0838
a42= 111.2759
t42= -291.7709
