%chk=structure.chk
NProcShared=8
#HF/6-31G* SCF=tight opt=Z-Matrix Freq

Optimization of phi 440.0

0   1
    H
    C    1      b2
    H    2      b3    1      a3
    H    2      b4    3      a4    1      t4
    C    2      b5    4      a5    1      t5
    O    5      b6    2      a6    1      t6
    N    5      b7    2      a7    1      t7
    H    7      b8    5      a8    2      t8
    C    7      b9    5      a9    2      t9
    H    9     b10    7     a10    5     t10
    C    9     b11    7     a11    5     t11
    H   11     b12    9     a12    7     t12
    H   11     b13    9     a13    7     t13
    H   11     b14    9     a14    7     t14
    C    9     b15    7     a15    5     t15
    O   15     b16    9     a16    7     t16
    N   15     b17    9     a17    7     t17
    H   17     b18   15     a18    9     t18
    C   17     b19   15     a19    9     t19
    H   19     b20   17     a20   15     t20
    C   19     b21   17     a21   15     t21
    H   21     b22   19     a22   17     t22
    H   21     b23   19     a23   17     t23
    H   21     b24   19     a24   17     t24
    C   19     b25   17     a25   15     t25
    O   25     b26   19     a26   17     t26
    N   25     b27   19     a27   17     t27
    H   27     b28   25     a28   19     t28
    C   27     b29   25     a29   19     t29
    H   29     b30   27     a30   25     t30
    C   29     b31   27     a31   25     t31
    H   31     b32   29     a32   27     t32
    H   31     b33   29     a33   27     t33
    H   31     b34   29     a34   27     t34
    C   29     b35   27     a35   25     t35
    O   35     b36   29     a36   27     t36
    N   35     b37   29     a37   27     t37
    H   37     b38   35     a38   29     t38
    C   37     b39   35     a39   29     t39
    H   39     b40   37     a40   35     t40
    H   39     b41   37     a41   35     t41
    H   39     b42   37     a42   35     t42
Variables
b2=   1.0809
b3=   1.0839
a3= 110.1843
b4=   1.0853
a4= 108.499
t4= 118.2095
b5=   1.5103
a5= 108.4501
t5= 117.5685
b6=   1.207
a6= 121.4608
t6=  34.2968
b7=   1.3507
a7= 116.3955
t7= 212.0452
b8=   0.9948
a8= 118.7793
t8=   8.1318
b9=   1.4475
a9= 122.8007
t9= 178.9919
b10=   1.082
a10= 105.9346
t10=  24.0041
b11=   1.5245
a11= 110.8002
t11= 142.2987
b12=   1.0844
a12= 111.2307
t12=  62.005
b13=   1.0815
a13= 110.6865
t13= 181.3393
b14=   1.0837
a14= 109.5265
t14= -58.4472
b15=   1.538
a15= 111.3134
t15= 266.6195
b16=   1.1927
a16= 121.1927
t16= -125.075
b17=   1.4002
a17= 116.451
t17=  46.3961
b18=   1.0045
a18= 106.0729
t18= 200.6138
b19=   1.4766
a19= 118.2974
t19= 440.0
b20=   1.0799
a20= 107.591
t20= -56.5976
b21=   1.525
a21= 113.5859
t21=  65.8864
b22=   1.082
a22= 110.8712
t22=  60.5112
b23=   1.0851
a23= 110.2807
t23= -179.8946
b24=   1.0848
a24= 110.5926
t24= -60.2299
b25=   1.5299
a25= 104.9086
t25= 187.5486
b26=   1.2054
a26= 120.8925
t26= -88.696
b27=   1.3444
a27= 115.9131
t27=  90.0
b28=   1.0006
a28= 119.7691
t28=  -6.4666
b29=   1.4478
a29= 120.8013
t29= -172.7611
b30=   1.0821
a30= 107.7762
t30= -47.2504
b31=   1.5339
a31= 112.8734
t31=  72.9663
b32=   1.0836
a32= 110.1402
t32=  60.2498
b33=   1.086
a33= 110.6676
t33= -179.7522
b34=   1.0814
a34= 109.6544
t34= -60.0579
b35=   1.5234
a35= 107.8149
t35= -166.6371
b36=   1.2039
a36= 121.0966
t36= -46.0521
b37=   1.3451
a37= 116.0239
t37= -223.1472
b38=   0.993
a38= 118.9222
t38= -10.7087
b39=   1.4481
a39= 121.6044
t39= 179.4116
b40=   1.0805
a40= 109.9353
t40= -50.146
b41=   1.084
a41= 111.6175
t41=  70.2178
b42=   1.0817
a42= 108.6797
t42= -169.4297
