%chk=structure.chk
NProcShared=8
#P hf/6-31G* Opt=(Tight,CalcFC) Freq SCF(Conver=6) Test

Optimization of phi 490

0   1
    H
    C    1      b2
    H    2      b3    1      a3
    H    2      b4    3      a4    1      t4
    C    2      b5    4      a5    1      t5
    O    5      b6    2      a6    1      t6
    N    5      b7    2      a7    1      t7
    H    7      b8    5      a8    2      t8
    C    7      b9    5      a9    2      t9
    H    9     b10    7     a10    5     t10
    C    9     b11    7     a11    5     t11
    H   11     b12    9     a12    7     t12
    H   11     b13    9     a13    7     t13
    H   11     b14    9     a14    7     t14
    C    9     b15    7     a15    5     t15
    O   15     b16    9     a16    7     t16
    N   15     b17    9     a17    7     t17
    H   17     b18   15     a18    9     t18
    C   17     b19   15     a19    9     t19
    H   19     b20   17     a20   15     t20
    C   19     b21   17     a21   15     t21
    H   21     b22   19     a22   17     t22
    H   21     b23   19     a23   17     t23
    H   21     b24   19     a24   17     t24
    C   19     b25   17     a25   15     t25
    O   25     b26   19     a26   17     t26
    N   25     b27   19     a27   17     t27
    H   27     b28   25     a28   19     t28
    C   27     b29   25     a29   19     t29
    H   29     b30   27     a30   25     t30
    C   29     b31   27     a31   25     t31
    H   31     b32   29     a32   27     t32
    H   31     b33   29     a33   27     t33
    H   31     b34   29     a34   27     t34
    C   29     b35   27     a35   25     t35
    O   35     b36   29     a36   27     t36
    N   35     b37   29     a37   27     t37
    H   37     b38   35     a38   29     t38
    C   37     b39   35     a39   29     t39
    H   39     b40   37     a40   35     t40
    H   39     b41   37     a41   35     t41
    H   39     b42   37     a42   35     t42
Variables
b2=   1.0812
b3=   1.0833
a3= 109.9899
b4=   1.0845
a4= 108.9249
t4= 118.4474
b5=   1.5086
a5= 108.168
t5= 116.9248
b6=   1.2061
a6= 121.8215
t6=  51.0273
b7=   1.3582
a7= 116.725
t7= 231.8867
b8=   0.9955
a8= 117.6621
t8=  -7.4531
b9=   1.454
a9= 122.1268
t9= 193.2553
b10=   1.0816
a10= 106.4133
t10=   5.8208
b11=   1.5266
a11= 110.7514
t11= 124.9247
b12=   1.0866
a12= 111.051
t12=  60.6601
b13=   1.0796
a13= 110.2547
t13= 180.1588
b14=   1.0843
a14= 109.952
t14= -59.4209
b15=   1.5326
a15= 114.6309
t15= 252.3939
b16=   1.1981
a16= 118.7182
t16= -164.5521
b17=   1.3665
a17= 118.5697
t17=  25.8353
b18=   0.9948
a18= 115.9699
t18= 340.6885
b19=   1.461
a19= 120.2619
t19= 490.0
b20=   1.0813
a20= 106.9817
t20=  -2.9894
b21=   1.5322
a21= 110.9142
t21= 114.6279
b22=   1.0859
a22= 110.5641
t22=  62.1154
b23=   1.0807
a23= 110.7856
t23= -177.2713
b24=   1.0828
a24= 108.8111
t24= -56.7873
b25=   1.5331
a25= 115.5181
t25= 239.2646
b26=   1.2025
a26= 118.2077
t26= 182.6561
b27=   1.3517
a27= 119.2011
t27=   0.0
b28=   0.9948
a28= 119.0363
t28=  25.8821
b29=   1.4566
a29= 120.4258
t29= 181.1287
b30=   1.0844
a30= 109.1461
t30= -49.7982
b31=   1.5307
a31= 111.9994
t31=  71.0508
b32=   1.0824
a32= 109.7578
t32=  59.7531
b33=   1.0859
a33= 110.0107
t33= 179.2484
b34=   1.0801
a34= 110.1451
t34= -61.1277
b35=   1.5272
a35= 107.5347
t35= 190.1983
b36=   1.2043
a36= 120.9225
t36= -56.4361
b37=   1.3437
a37= 115.9498
t37= 126.3077
b38=   0.9933
a38= 118.3142
t38= -13.6864
b39=   1.4481
a39= 121.1523
t39= 184.271
b40=   1.0818
a40= 108.6991
t40= -171.2528
b41=   1.0803
a41= 109.743
t41= -52.1941
b42=   1.0838
a42= 111.2896
t42= -291.6881
