%chk=structure.chk
NProcShared=8
#P hf/6-31G* Opt=(Tight,CalcFC) Freq SCF(Conver=6) Test

Optimization of phi 290

0   1
    H
    C    1      b2
    H    2      b3    1      a3
    H    2      b4    3      a4    1      t4
    C    2      b5    4      a5    1      t5
    O    5      b6    2      a6    1      t6
    N    5      b7    2      a7    1      t7
    H    7      b8    5      a8    2      t8
    C    7      b9    5      a9    2      t9
    H    9     b10    7     a10    5     t10
    C    9     b11    7     a11    5     t11
    H   11     b12    9     a12    7     t12
    H   11     b13    9     a13    7     t13
    H   11     b14    9     a14    7     t14
    C    9     b15    7     a15    5     t15
    O   15     b16    9     a16    7     t16
    N   15     b17    9     a17    7     t17
    H   17     b18   15     a18    9     t18
    C   17     b19   15     a19    9     t19
    H   19     b20   17     a20   15     t20
    C   19     b21   17     a21   15     t21
    H   21     b22   19     a22   17     t22
    H   21     b23   19     a23   17     t23
    H   21     b24   19     a24   17     t24
    C   19     b25   17     a25   15     t25
    O   25     b26   19     a26   17     t26
    N   25     b27   19     a27   17     t27
    H   27     b28   25     a28   19     t28
    C   27     b29   25     a29   19     t29
    H   29     b30   27     a30   25     t30
    C   29     b31   27     a31   25     t31
    H   31     b32   29     a32   27     t32
    H   31     b33   29     a33   27     t33
    H   31     b34   29     a34   27     t34
    C   29     b35   27     a35   25     t35
    O   35     b36   29     a36   27     t36
    N   35     b37   29     a37   27     t37
    H   37     b38   35     a38   29     t38
    C   37     b39   35     a39   29     t39
    H   39     b40   37     a40   35     t40
    H   39     b41   37     a41   35     t41
    H   39     b42   37     a42   35     t42
Variables
b2=   1.0818
b3=   1.0832
a3= 109.6067
b4=   1.0846
a4= 108.7451
t4= 117.6772
b5=   1.5128
a5= 108.5525
t5= 117.5533
b6=   1.2031
a6= 121.7674
t6=  43.3501
b7=   1.3506
a7= 115.911
t7= 222.0988
b8=   0.9945
a8= 120.9011
t8=   5.5626
b9=   1.4422
a9= 121.7898
t9= 178.5892
b10=   1.0823
a10= 108.511
t10= -39.5372
b11=   1.5377
a11= 111.8252
t11=  79.7698
b12=   1.0849
a12= 110.6803
t12=  62.1135
b13=   1.0855
a13= 111.8448
t13= 183.6135
b14=   1.0811
a14= 108.7623
t14= -57.4218
b15=   1.5264
a15= 108.4806
t15= 202.1882
b16=   1.1863
a16= 121.343
t16= -12.3072
b17=   1.4254
a17= 117.7705
t17= 166.2953
b18=   1.0007
a18= 110.1987
t18=  56.4431
b19=   1.4683
a19= 116.3211
t19= 290.0
b20=   1.0857
a20= 111.1975
t20=  14.8242
b21=   1.5284
a21= 110.8452
t21= 135.2909
b22=   1.0861
a22= 110.4637
t22=  56.5232
b23=   1.0801
a23= 109.9568
t23= -183.7564
b24=   1.0856
a24= 110.5225
t24= -63.6258
b25=   1.5322
a25= 112.3903
t25= 257.9297
b26=   1.2073
a26= 118.9384
t26= 179.1021
b27=   1.3359
a27= 117.2543
t27=   0.0
b28=   0.9977
a28= 119.9896
t28=  -1.7103
b29=   1.4441
a29= 121.5885
t29= 179.9091
b30=   1.0828
a30= 108.1409
t30= -41.6209
b31=   1.5346
a31= 112.2529
t31=  78.5275
b32=   1.0842
a32= 110.1143
t32=  60.5373
b33=   1.0854
a33= 110.9566
t33= 180.7701
b34=   1.0819
a34= 109.4281
t34= -59.4784
b35=   1.5245
a35= 107.7044
t35= 199.1447
b36=   1.202
a36= 121.3642
t36= -32.956
b37=   1.3469
a37= 115.6063
t37= 150.0179
b38=   0.9932
a38= 118.9587
t38= -11.1268
b39=   1.448
a39= 121.5613
t39= 179.2699
b40=   1.0803
a40= 109.8827
t40= -49.213
b41=   1.0841
a41= 111.679
t41=  71.1454
b42=   1.0818
a42= 108.7014
t42= -168.4678
