%chk=structure.chk
NProcShared=8
#P hf/6-31G* Opt=(Tight,CalcFC) Freq SCF(Conver=6) Test

Optimization of phi 470

0   1
    H
    C    1      b2
    H    2      b3    1      a3
    H    2      b4    3      a4    1      t4
    C    2      b5    4      a5    1      t5
    O    5      b6    2      a6    1      t6
    N    5      b7    2      a7    1      t7
    H    7      b8    5      a8    2      t8
    C    7      b9    5      a9    2      t9
    H    9     b10    7     a10    5     t10
    C    9     b11    7     a11    5     t11
    H   11     b12    9     a12    7     t12
    H   11     b13    9     a13    7     t13
    H   11     b14    9     a14    7     t14
    C    9     b15    7     a15    5     t15
    O   15     b16    9     a16    7     t16
    N   15     b17    9     a17    7     t17
    H   17     b18   15     a18    9     t18
    C   17     b19   15     a19    9     t19
    H   19     b20   17     a20   15     t20
    C   19     b21   17     a21   15     t21
    H   21     b22   19     a22   17     t22
    H   21     b23   19     a23   17     t23
    H   21     b24   19     a24   17     t24
    C   19     b25   17     a25   15     t25
    O   25     b26   19     a26   17     t26
    N   25     b27   19     a27   17     t27
    H   27     b28   25     a28   19     t28
    C   27     b29   25     a29   19     t29
    H   29     b30   27     a30   25     t30
    C   29     b31   27     a31   25     t31
    H   31     b32   29     a32   27     t32
    H   31     b33   29     a33   27     t33
    H   31     b34   29     a34   27     t34
    C   29     b35   27     a35   25     t35
    O   35     b36   29     a36   27     t36
    N   35     b37   29     a37   27     t37
    H   37     b38   35     a38   29     t38
    C   37     b39   35     a39   29     t39
    H   39     b40   37     a40   35     t40
    H   39     b41   37     a41   35     t41
    H   39     b42   37     a42   35     t42
Variables
b2=   1.0825
b3=   1.0837
a3= 109.5849
b4=   1.0833
a4= 109.1115
t4= 118.1648
b5=   1.5111
a5= 108.3946
t5= 116.7862
b6=   1.2017
a6= 121.5944
t6=  62.021
b7=   1.3585
a7= 115.8963
t7= 241.902
b8=   0.9944
a8= 118.8404
t8=  -1.6577
b9=   1.4458
a9= 123.0218
t9= 180.667
b10=   1.0822
a10= 105.5857
t10=   7.505
b11=   1.524
a11= 111.7435
t11= 127.1436
b12=   1.0846
a12= 111.2314
t12=  61.3411
b13=   1.0826
a13= 110.8106
t13= 180.8563
b14=   1.0837
a14= 109.5939
t14= -59.009
b15=   1.5287
a15= 109.9141
t15= 252.1667
b16=   1.1884
a16= 122.5603
t16= -121.2041
b17=   1.4272
a17= 114.5375
t17=  54.7129
b18=   1.0046
a18= 106.4896
t18= 228.933
b19=   1.4737
a19= 114.0279
t19= 470.0
b20=   1.0854
a20= 107.7939
t20= -35.1322
b21=   1.5289
a21= 113.7027
t21=  85.3765
b22=   1.0871
a22= 110.4382
t22=  61.1176
b23=   1.081
a23= 110.0372
t23= -179.5881
b24=   1.0824
a24= 110.2657
t24= -58.64
b25=   1.5318
a25= 111.5089
t25= 210.9322
b26=   1.2061
a26= 119.7006
t26= 180.0853
b27=   1.3382
a27= 116.482
t27=   0.0
b28=   0.9951
a28= 118.6296
t28=   7.4329
b29=   1.4443
a29= 122.1896
t29= 174.3063
b30=   1.0833
a30= 108.5068
t30= -38.5985
b31=   1.5328
a31= 112.2126
t31=  81.7658
b32=   1.0837
a32= 110.0823
t32=  60.259
b33=   1.0857
a33= 110.8522
t33= 180.5804
b34=   1.082
a34= 109.3457
t34= -59.7167
b35=   1.5248
a35= 107.2053
t35= 202.1396
b36=   1.2054
a36= 121.0237
t36= -39.4215
b37=   1.3438
a37= 115.9198
t37= 143.6571
b38=   0.9935
a38= 118.4066
t38= -13.9685
b39=   1.4482
a39= 121.3857
t39= 182.2844
b40=   1.0802
a40= 109.7759
t40= -51.1168
b41=   1.0841
a41= 111.5072
t41=  69.4012
b42=   1.0817
a42= 108.6835
t42= -170.1981
