%chk=structure.chk
NProcShared=8
#HF/6-31G* SCF=tight opt=Z-Matrix Freq

Optimization of phi 320.0

0   1
    H
    C    1      b2
    H    2      b3    1      a3
    H    2      b4    3      a4    1      t4
    C    2      b5    4      a5    1      t5
    O    5      b6    2      a6    1      t6
    N    5      b7    2      a7    1      t7
    H    7      b8    5      a8    2      t8
    C    7      b9    5      a9    2      t9
    H    9     b10    7     a10    5     t10
    C    9     b11    7     a11    5     t11
    H   11     b12    9     a12    7     t12
    H   11     b13    9     a13    7     t13
    H   11     b14    9     a14    7     t14
    C    9     b15    7     a15    5     t15
    O   15     b16    9     a16    7     t16
    N   15     b17    9     a17    7     t17
    H   17     b18   15     a18    9     t18
    C   17     b19   15     a19    9     t19
    H   19     b20   17     a20   15     t20
    C   19     b21   17     a21   15     t21
    H   21     b22   19     a22   17     t22
    H   21     b23   19     a23   17     t23
    H   21     b24   19     a24   17     t24
    C   19     b25   17     a25   15     t25
    O   25     b26   19     a26   17     t26
    N   25     b27   19     a27   17     t27
    H   27     b28   25     a28   19     t28
    C   27     b29   25     a29   19     t29
    H   29     b30   27     a30   25     t30
    C   29     b31   27     a31   25     t31
    H   31     b32   29     a32   27     t32
    H   31     b33   29     a33   27     t33
    H   31     b34   29     a34   27     t34
    C   29     b35   27     a35   25     t35
    O   35     b36   29     a36   27     t36
    N   35     b37   29     a37   27     t37
    H   37     b38   35     a38   29     t38
    C   37     b39   35     a39   29     t39
    H   39     b40   37     a40   35     t40
    H   39     b41   37     a41   35     t41
    H   39     b42   37     a42   35     t42
Variables
b2=   1.0824
b3=   1.0831
a3= 110.0497
b4=   1.0833
a4= 109.2126
t4= 118.1489
b5=   1.508
a5= 108.2893
t5= 116.6379
b6=   1.2099
a6= 121.2888
t6=  58.804
b7=   1.3494
a7= 116.9316
t7= 238.1539
b8=   0.9952
a8= 118.8602
t8=  13.0543
b9=   1.4498
a9= 121.7917
t9= 175.2291
b10=   1.0757
a10= 107.0071
t10=  31.2569
b11=   1.5283
a11= 110.2907
t11= 149.8594
b12=   1.083
a12= 110.7463
t12=  61.0946
b13=   1.0845
a13= 110.3961
t13= 180.6498
b14=   1.0838
a14= 109.7774
t14= -59.6705
b15=   1.5318
a15= 110.0865
t15= 269.6924
b16=   1.2007
a16= 119.1239
t16= -61.5682
b17=   1.3623
a17= 118.8271
t17= 124.8117
b18=   1.0011
a18= 111.0574
t18= 173.3196
b19=   1.4645
a19= 127.5026
t19= 320.0
b20=   1.0775
a20= 108.6345
t20=  17.3356
b21=   1.5223
a21= 110.7886
t21= 138.5146
b22=   1.0819
a22= 110.7189
t22=  59.9961
b23=   1.0848
a23= 110.5855
t23= -180.317
b24=   1.0841
a24= 109.724
t24= -60.391
b25=   1.5344
a25= 106.9077
t25= 259.8676
b26=   1.2059
a26= 120.6877
t26= -85.7587
b27=   1.343
a27= 116.0507
t27=  90.0
b28=   1.0003
a28= 120.6694
t28=   6.9946
b29=   1.4478
a29= 120.9786
t29= -172.9268
b30=   1.0826
a30= 108.1367
t30= -44.0678
b31=   1.5342
a31= 112.238
t31=  76.0874
b32=   1.0836
a32= 110.1035
t32=  60.0455
b33=   1.0858
a33= 110.7568
t33= -179.7099
b34=   1.0815
a34= 109.593
t34= -60.0546
b35=   1.5232
a35= 108.203
t35= -163.6254
b36=   1.204
a36= 121.3876
t36= -41.0077
b37=   1.3445
a37= 115.8081
t37= -218.0193
b38=   0.993
a38= 119.0541
t38=  -9.7461
b39=   1.4481
a39= 121.6276
t39= 178.4974
b40=   1.0808
a40= 110.1234
t40= -52.0178
b41=   1.0837
a41= 111.4935
t41=  68.4229
b42=   1.0816
a42= 108.6363
t42= -171.344
