%chk=structure.chk
NProcShared=8
#HF/6-31G* SCF=tight opt=Z-Matrix Freq

Optimization of phi 340.0

0   1
    H
    C    1      b2
    H    2      b3    1      a3
    H    2      b4    3      a4    1      t4
    C    2      b5    4      a5    1      t5
    O    5      b6    2      a6    1      t6
    N    5      b7    2      a7    1      t7
    H    7      b8    5      a8    2      t8
    C    7      b9    5      a9    2      t9
    H    9     b10    7     a10    5     t10
    C    9     b11    7     a11    5     t11
    H   11     b12    9     a12    7     t12
    H   11     b13    9     a13    7     t13
    H   11     b14    9     a14    7     t14
    C    9     b15    7     a15    5     t15
    O   15     b16    9     a16    7     t16
    N   15     b17    9     a17    7     t17
    H   17     b18   15     a18    9     t18
    C   17     b19   15     a19    9     t19
    H   19     b20   17     a20   15     t20
    C   19     b21   17     a21   15     t21
    H   21     b22   19     a22   17     t22
    H   21     b23   19     a23   17     t23
    H   21     b24   19     a24   17     t24
    C   19     b25   17     a25   15     t25
    O   25     b26   19     a26   17     t26
    N   25     b27   19     a27   17     t27
    H   27     b28   25     a28   19     t28
    C   27     b29   25     a29   19     t29
    H   29     b30   27     a30   25     t30
    C   29     b31   27     a31   25     t31
    H   31     b32   29     a32   27     t32
    H   31     b33   29     a33   27     t33
    H   31     b34   29     a34   27     t34
    C   29     b35   27     a35   25     t35
    O   35     b36   29     a36   27     t36
    N   35     b37   29     a37   27     t37
    H   37     b38   35     a38   29     t38
    C   37     b39   35     a39   29     t39
    H   39     b40   37     a40   35     t40
    H   39     b41   37     a41   35     t41
    H   39     b42   37     a42   35     t42
Variables
b2=   1.0822
b3=   1.0831
a3= 110.0804
b4=   1.0836
a4= 109.1273
t4= 118.085
b5=   1.5084
a5= 108.253
t5= 116.6762
b6=   1.2098
a6= 121.1931
t6=  55.5127
b7=   1.3488
a7= 116.8784
t7= 234.8007
b8=   0.9952
a8= 119.0601
t8=  11.2217
b9=   1.4519
a9= 122.3707
t9= 176.1839
b10=   1.0754
a10= 106.8071
t10=  26.9437
b11=   1.5269
a11= 110.3676
t11= 145.5688
b12=   1.0824
a12= 110.7965
t12=  61.2328
b13=   1.0847
a13= 110.4344
t13= 180.7101
b14=   1.0839
a14= 109.736
t14= -59.6417
b15=   1.5325
a15= 109.0557
t15= 265.6951
b16=   1.2032
a16= 118.8737
t16= -68.904
b17=   1.3537
a17= 119.8203
t17= 113.4271
b18=   1.0
a18= 112.2463
t18= 177.0712
b19=   1.4602
a19= 130.4774
t19= 340.0
b20=   1.0767
a20= 108.6932
t20=   1.8732
b21=   1.5232
a21= 111.3496
t21= 123.5922
b22=   1.0819
a22= 110.7097
t22=  59.7885
b23=   1.0849
a23= 110.5911
t23= -180.4726
b24=   1.0844
a24= 109.7951
t24= -60.5987
b25=   1.5342
a25= 106.4328
t25= 244.9679
b26=   1.2057
a26= 120.7819
t26= -86.2195
b27=   1.3426
a27= 115.9047
t27=  90.0
b28=   1.0002
a28= 120.5723
t28=   5.5021
b29=   1.4475
a29= 121.095
t29= -173.2184
b30=   1.0826
a30= 108.1587
t30= -44.7774
b31=   1.5342
a31= 112.3316
t31=  75.4335
b32=   1.0836
a32= 110.0892
t32=  60.1269
b33=   1.0858
a33= 110.7492
t33= -179.7018
b34=   1.0815
a34= 109.6122
t34= -60.0385
b35=   1.5234
a35= 108.1042
t35= -164.3303
b36=   1.204
a36= 121.3384
t36= -41.1796
b37=   1.3446
a37= 115.8286
t37= -218.1766
b38=   0.993
a38= 119.0348
t38=  -9.9289
b39=   1.4482
a39= 121.6336
t39= 178.5863
b40=   1.0808
a40= 110.0809
t40= -51.4786
b41=   1.0837
a41= 111.5132
t41=  68.9492
b42=   1.0816
a42= 108.6459
t42= -170.7949
