%chk=structure.chk
NProcShared=8
#P hf/6-31G* Opt=(Tight,CalcFC) Freq SCF(Conver=6) Test

Optimization of phi 480

0   1
    H
    C    1      b2
    H    2      b3    1      a3
    H    2      b4    3      a4    1      t4
    C    2      b5    4      a5    1      t5
    O    5      b6    2      a6    1      t6
    N    5      b7    2      a7    1      t7
    H    7      b8    5      a8    2      t8
    C    7      b9    5      a9    2      t9
    H    9     b10    7     a10    5     t10
    C    9     b11    7     a11    5     t11
    H   11     b12    9     a12    7     t12
    H   11     b13    9     a13    7     t13
    H   11     b14    9     a14    7     t14
    C    9     b15    7     a15    5     t15
    O   15     b16    9     a16    7     t16
    N   15     b17    9     a17    7     t17
    H   17     b18   15     a18    9     t18
    C   17     b19   15     a19    9     t19
    H   19     b20   17     a20   15     t20
    C   19     b21   17     a21   15     t21
    H   21     b22   19     a22   17     t22
    H   21     b23   19     a23   17     t23
    H   21     b24   19     a24   17     t24
    C   19     b25   17     a25   15     t25
    O   25     b26   19     a26   17     t26
    N   25     b27   19     a27   17     t27
    H   27     b28   25     a28   19     t28
    C   27     b29   25     a29   19     t29
    H   29     b30   27     a30   25     t30
    C   29     b31   27     a31   25     t31
    H   31     b32   29     a32   27     t32
    H   31     b33   29     a33   27     t33
    H   31     b34   29     a34   27     t34
    C   29     b35   27     a35   25     t35
    O   35     b36   29     a36   27     t36
    N   35     b37   29     a37   27     t37
    H   37     b38   35     a38   29     t38
    C   37     b39   35     a39   29     t39
    H   39     b40   37     a40   35     t40
    H   39     b41   37     a41   35     t41
    H   39     b42   37     a42   35     t42
Variables
b2=   1.0822
b3=   1.0837
a3= 109.6317
b4=   1.0835
a4= 109.0774
t4= 118.1951
b5=   1.511
a5= 108.3944
t5= 116.7622
b6=   1.2022
a6= 121.5795
t6=  60.1118
b7=   1.3585
a7= 115.9577
t7= 240.1538
b8=   0.9944
a8= 118.5767
t8=  -4.4831
b9=   1.446
a9= 122.9644
t9= 182.8752
b10=   1.0829
a10= 105.5808
t10=   4.2728
b11=   1.5248
a11= 111.7626
t11= 123.8027
b12=   1.0853
a12= 111.2104
t12=  61.9487
b13=   1.0818
a13= 110.8554
t13= 181.5267
b14=   1.0837
a14= 109.5848
t14= -58.231
b15=   1.5277
a15= 111.2583
t15= 249.9859
b16=   1.1877
a16= 122.2443
t16= -133.0205
b17=   1.4294
a17= 114.7074
t17=  48.5938
b18=   1.0038
a18= 108.3907
t18= 243.2766
b19=   1.47
a19= 114.6214
t19= 480.0
b20=   1.0844
a20= 107.7054
t20= -30.7828
b21=   1.5293
a21= 113.8323
t21=  89.6024
b22=   1.0875
a22= 110.4289
t22=  60.2627
b23=   1.0811
a23= 110.1807
t23= -180.4242
b24=   1.0822
a24= 110.0109
t24= -59.5338
b25=   1.5326
a25= 111.4587
t25= 214.9929
b26=   1.206
a26= 119.7519
t26= 179.7493
b27=   1.3383
a27= 116.4619
t27=   0.0
b28=   0.9946
a28= 118.4047
t28=   5.5977
b29=   1.4462
a29= 122.5303
t29= 175.2218
b30=   1.0831
a30= 108.4015
t30= -40.0604
b31=   1.5313
a31= 112.3821
t31=  80.3904
b32=   1.0833
a32= 110.0421
t32=  60.2185
b33=   1.086
a33= 110.6941
t33= 180.4072
b34=   1.082
a34= 109.4392
t34= -59.9599
b35=   1.5252
a35= 106.6903
t35= 200.6849
b36=   1.2057
a36= 120.587
t36= -48.0793
b37=   1.3432
a37= 116.3071
t37= 134.255
b38=   0.9934
a38= 118.189
t38= -13.9692
b39=   1.4489
a39= 121.0789
t39= 184.9022
b40=   1.0803
a40= 109.7726
t40= -53.24
b41=   1.0838
a41= 111.264
t41=  67.2865
b42=   1.0818
a42= 108.6577
t42= -172.2757
