%chk=structure.chk
NProcShared=8
#HF/6-31G* SCF=tight opt=Z-Matrix Freq

Optimization of phi 540

0   1
    H
    C    1      b2
    H    2      b3    1      a3
    H    2      b4    3      a4    1      t4
    C    2      b5    4      a5    1      t5
    O    5      b6    2      a6    1      t6
    N    5      b7    2      a7    1      t7
    H    7      b8    5      a8    2      t8
    C    7      b9    5      a9    2      t9
    H    9     b10    7     a10    5     t10
    C    9     b11    7     a11    5     t11
    H   11     b12    9     a12    7     t12
    H   11     b13    9     a13    7     t13
    H   11     b14    9     a14    7     t14
    C    9     b15    7     a15    5     t15
    O   15     b16    9     a16    7     t16
    N   15     b17    9     a17    7     t17
    H   17     b18   15     a18    9     t18
    C   17     b19   15     a19    9     t19
    H   19     b20   17     a20   15     t20
    C   19     b21   17     a21   15     t21
    H   21     b22   19     a22   17     t22
    H   21     b23   19     a23   17     t23
    H   21     b24   19     a24   17     t24
    C   19     b25   17     a25   15     t25
    O   25     b26   19     a26   17     t26
    N   25     b27   19     a27   17     t27
    H   27     b28   25     a28   19     t28
    C   27     b29   25     a29   19     t29
    H   29     b30   27     a30   25     t30
    C   29     b31   27     a31   25     t31
    H   31     b32   29     a32   27     t32
    H   31     b33   29     a33   27     t33
    H   31     b34   29     a34   27     t34
    C   29     b35   27     a35   25     t35
    O   35     b36   29     a36   27     t36
    N   35     b37   29     a37   27     t37
    H   37     b38   35     a38   29     t38
    C   37     b39   35     a39   29     t39
    H   39     b40   37     a40   35     t40
    H   39     b41   37     a41   35     t41
    H   39     b42   37     a42   35     t42
Variables
b2=   1.0858
b3=   1.0802
a3= 108.4457
b4=   1.0842
a4= 109.6949
t4= 118.1161
b5=   1.5124
a5= 112.3649
t5= 120.5228
b6=   1.1978
a6= 122.6609
t6= -92.8109
b7=   1.3642
a7= 115.6347
t7=  86.9612
b8=   0.9952
a8= 118.0122
t8=  -9.5199
b9=   1.4525
a9= 120.8783
t9= 191.9775
b10=   1.0809
a10= 109.1876
t10=  37.7865
b11=   1.529
a11= 110.0464
t11= 158.0714
b12=   1.0861
a12= 111.0843
t12=  60.055
b13=   1.0813
a13= 109.7143
t13= 179.8778
b14=   1.0851
a14= 110.3755
t14= -60.5486
b15=   1.5283
a15= 113.9764
t15= 280.8045
b16=   1.2034
a16= 119.2653
t16= -198.1157
b17=   1.3471
a17= 117.1589
t17= -22.678
b18=   0.9943
a18= 118.2259
t18= 375.3772
b19=   1.4541
a19= 122.1318
t19= 540.0
b20=   1.0794
a20= 106.6905
t20=  29.2972
b21=   1.522
a21= 110.4903
t21= 149.0454
b22=   1.0828
a22= 110.9005
t22=  62.2658
b23=   1.084
a23= 110.3743
t23= -178.5813
b24=   1.0843
a24= 109.9258
t24= -58.7847
b25=   1.5322
a25= 108.2164
t25= 271.1814
b26=   1.2055
a26= 121.1926
t26= -88.5704
b27=   1.3431
a27= 115.0193
t27=  90.0
b28=   0.9986
a28= 119.7247
t28=  -6.6287
b29=   1.4443
a29= 121.8393
t29= -171.7353
b30=   1.0811
a30= 107.3097
t30= -34.5501
b31=   1.5347
a31= 112.0987
t31=  85.5251
b32=   1.0839
a32= 110.2786
t32=  61.1525
b33=   1.0857
a33= 111.0302
t33= -178.4222
b34=   1.0823
a34= 109.7387
t34= -58.1854
b35=   1.5245
a35= 107.935
t35= -153.342
b36=   1.2019
a36= 121.5755
t36= -32.0401
b37=   1.3482
a37= 115.5351
t37= -209.2062
b38=   0.9932
a38= 118.954
t38= -10.6489
b39=   1.4473
a39= 121.6295
t39= 179.1325
b40=   1.082
a40= 108.7469
t40= 192.2884
b41=   1.0803
a41= 109.8679
t41= 311.5582
b42=   1.0844
a42= 111.7455
t42=  71.9124
