%chk=structure.chk
NProcShared=8
#HF/6-31G* SCF=tight opt=Z-Matrix Freq

Optimization of phi 520.0

0   1
    H
    C    1      b2
    H    2      b3    1      a3
    H    2      b4    3      a4    1      t4
    C    2      b5    4      a5    1      t5
    O    5      b6    2      a6    1      t6
    N    5      b7    2      a7    1      t7
    H    7      b8    5      a8    2      t8
    C    7      b9    5      a9    2      t9
    H    9     b10    7     a10    5     t10
    C    9     b11    7     a11    5     t11
    H   11     b12    9     a12    7     t12
    H   11     b13    9     a13    7     t13
    H   11     b14    9     a14    7     t14
    C    9     b15    7     a15    5     t15
    O   15     b16    9     a16    7     t16
    N   15     b17    9     a17    7     t17
    H   17     b18   15     a18    9     t18
    C   17     b19   15     a19    9     t19
    H   19     b20   17     a20   15     t20
    C   19     b21   17     a21   15     t21
    H   21     b22   19     a22   17     t22
    H   21     b23   19     a23   17     t23
    H   21     b24   19     a24   17     t24
    C   19     b25   17     a25   15     t25
    O   25     b26   19     a26   17     t26
    N   25     b27   19     a27   17     t27
    H   27     b28   25     a28   19     t28
    C   27     b29   25     a29   19     t29
    H   29     b30   27     a30   25     t30
    C   29     b31   27     a31   25     t31
    H   31     b32   29     a32   27     t32
    H   31     b33   29     a33   27     t33
    H   31     b34   29     a34   27     t34
    C   29     b35   27     a35   25     t35
    O   35     b36   29     a36   27     t36
    N   35     b37   29     a37   27     t37
    H   37     b38   35     a38   29     t38
    C   37     b39   35     a39   29     t39
    H   39     b40   37     a40   35     t40
    H   39     b41   37     a41   35     t41
    H   39     b42   37     a42   35     t42
Variables
b2=   1.0857
b3=   1.0802
a3= 108.4103
b4=   1.0841
a4= 109.6745
t4= 118.1103
b5=   1.5128
a5= 112.5419
t5= 120.5219
b6=   1.1983
a6= 122.3339
t6= -91.068
b7=   1.3635
a7= 115.3644
t7=  88.3548
b8=   0.9954
a8= 117.9505
t8=  -6.9158
b9=   1.451
a9= 122.1768
t9= 190.763
b10=   1.0804
a10= 107.3968
t10=  17.8237
b11=   1.529
a11= 110.7429
t11= 137.24
b12=   1.087
a12= 111.0897
t12=  60.0706
b13=   1.0805
a13= 109.8792
t13= 179.6876
b14=   1.0842
a14= 110.1561
t14= -60.1831
b15=   1.5315
a15= 114.6704
t15= 262.4565
b16=   1.2029
a16= 118.9829
t16= -183.7231
b17=   1.3521
a17= 117.7029
t17=  -2.6245
b18=   0.9956
a18= 116.3076
t18= 369.719
b19=   1.4575
a19= 121.37
t19= 520.0
b20=   1.0791
a20= 106.6413
t20=  33.218
b21=   1.5219
a21= 110.5372
t21= 152.7947
b22=   1.0827
a22= 110.9182
t22=  62.041
b23=   1.0842
a23= 110.4344
t23= -178.7003
b24=   1.0839
a24= 109.7883
t24= -58.8588
b25=   1.5318
a25= 108.0693
t25= 274.9207
b26=   1.2055
a26= 121.0996
t26= -87.6456
b27=   1.3427
a27= 115.2437
t27=  90.0
b28=   0.998
a28= 120.4031
t28=  -1.9106
b29=   1.4444
a29= 122.1081
t29= -173.3971
b30=   1.0813
a30= 107.3973
t30= -32.8791
b31=   1.5347
a31= 112.0837
t31=  87.2053
b32=   1.0843
a32= 110.2365
t32=  62.0106
b33=   1.0855
a33= 111.034
t33= -177.7714
b34=   1.0821
a34= 109.8703
t34= -57.4694
b35=   1.5247
a35= 107.8394
t35= -151.6521
b36=   1.2024
a36= 121.4951
t36= -30.1236
b37=   1.3473
a37= 115.5736
t37= -207.3769
b38=   0.9933
a38= 118.9792
t38= -10.1495
b39=   1.4476
a39= 121.6752
t39= 179.012
b40=   1.0819
a40= 108.7325
t40= 192.4751
b41=   1.0803
a41= 109.8777
t41= 311.7511
b42=   1.0843
a42= 111.714
t42=  72.1195
