%chk=structure.chk
NProcShared=8
#HF/6-31G* SCF=tight opt=Z-Matrix Freq

Optimization of phi -169.5041

0   1
    H
    C    1      b2
    H    2      b3    1      a3
    H    2      b4    3      a4    1      t4
    C    2      b5    4      a5    1      t5
    O    5      b6    2      a6    1      t6
    N    5      b7    2      a7    1      t7
    H    7      b8    5      a8    2      t8
    C    7      b9    5      a9    2      t9
    H    9     b10    7     a10    5     t10
    C    9     b11    7     a11    5     t11
    H   11     b12    9     a12    7     t12
    H   11     b13    9     a13    7     t13
    H   11     b14    9     a14    7     t14
    C    9     b15    7     a15    5     t15
    O   15     b16    9     a16    7     t16
    N   15     b17    9     a17    7     t17
    H   17     b18   15     a18    9     t18
    C   17     b19   15     a19    9     t19
    H   19     b20   17     a20   15     t20
    C   19     b21   17     a21   15     t21
    H   21     b22   19     a22   17     t22
    H   21     b23   19     a23   17     t23
    H   21     b24   19     a24   17     t24
    C   19     b25   17     a25   15     t25
    O   25     b26   19     a26   17     t26
    N   25     b27   19     a27   17     t27
    H   27     b28   25     a28   19     t28
    C   27     b29   25     a29   19     t29
    H   29     b30   27     a30   25     t30
    C   29     b31   27     a31   25     t31
    H   31     b32   29     a32   27     t32
    H   31     b33   29     a33   27     t33
    H   31     b34   29     a34   27     t34
    C   29     b35   27     a35   25     t35
    O   35     b36   29     a36   27     t36
    N   35     b37   29     a37   27     t37
    H   37     b38   35     a38   29     t38
    C   37     b39   35     a39   29     t39
    H   39     b40   37     a40   35     t40
    H   39     b41   37     a41   35     t41
    H   39     b42   37     a42   35     t42
Variables
b2=   1.0799
b3=   1.0844
a3= 109.9986
b4=   1.0858
a4= 108.1717
t4= 118.2159
b5=   1.5106
a5= 108.2394
t5= 118.6345
b6=   1.2064
a6= 122.2368
t6=  30.9082
b7=   1.3493
a7= 116.1191
t7= 208.1658
b8=   0.9935
a8= 118.7879
t8=  12.7322
b9=   1.4407
a9= 122.1551
t9= 183.0551
b10=   1.0822
a10= 108.3045
t10=  50.3187
b11=   1.5315
a11= 109.3761
t11= 168.6783
b12=   1.0871
a12= 111.1658
t12=  62.1123
b13=   1.0806
a13= 110.1327
t13= 182.1608
b14=   1.0842
a14= 109.9751
t14= -57.8829
b15=   1.5354
a15= 116.1996
t15= 292.7891
b16=   1.1892
a16= 117.7986
t16= -186.4568
b17=   1.4264
a17= 118.9002
t17=  -9.1019
b18=   1.0052
a18= 107.3689
t18= 239.7013
b19=   1.4794
a19= 114.4282
t19= 480.0
b20=   1.0806
a20= 106.5826
t20= -47.1823
b21=   1.5259
a21= 115.0128
t21=  75.1238
b22=   1.083
a22= 110.5853
t22=  60.3871
b23=   1.0856
a23= 109.993
t23= -180.8076
b24=   1.0807
a24= 110.5528
t24= -60.6667
b25=   1.5288
a25= 105.3564
t25= 197.0256
b26=   1.2057
a26= 121.2501
t26= -88.4177
b27=   1.3456
a27= 116.1305
t27=  90.0
b28=   0.9982
a28= 120.4455
t28=  -1.6884
b29=   1.4452
a29= 121.0026
t29= -177.2471
b30=   1.0821
a30= 107.683
t30= -40.6663
b31=   1.5343
a31= 112.6535
t31=  79.0951
b32=   1.0839
a32= 110.3294
t32=  61.0705
b33=   1.0857
a33= 110.9044
t33= -178.6707
b34=   1.0818
a34= 109.3311
t34= -58.9709
b35=   1.523
a35= 108.1349
t35= -159.7791
b36=   1.2045
a36= 121.3834
t36= -38.578
b37=   1.3446
a37= 115.8412
t37= -215.7606
b38=   0.9932
a38= 118.9238
t38= -10.6564
b39=   1.4484
a39= 121.6583
t39= 179.1862
b40=   1.0805
a40= 109.9637
t40= -50.216
b41=   1.0839
a41= 111.5964
t41=  70.1719
b42=   1.0816
a42= 108.6568
t42= -169.5041
