%chk=structure.chk
NProcShared=8
#HF/6-31G* SCF=tight opt=Z-Matrix Freq

Optimization of phi -167.6561

0   1
    H
    C    1      b2
    H    2      b3    1      a3
    H    2      b4    3      a4    1      t4
    C    2      b5    4      a5    1      t5
    O    5      b6    2      a6    1      t6
    N    5      b7    2      a7    1      t7
    H    7      b8    5      a8    2      t8
    C    7      b9    5      a9    2      t9
    H    9     b10    7     a10    5     t10
    C    9     b11    7     a11    5     t11
    H   11     b12    9     a12    7     t12
    H   11     b13    9     a13    7     t13
    H   11     b14    9     a14    7     t14
    C    9     b15    7     a15    5     t15
    O   15     b16    9     a16    7     t16
    N   15     b17    9     a17    7     t17
    H   17     b18   15     a18    9     t18
    C   17     b19   15     a19    9     t19
    H   19     b20   17     a20   15     t20
    C   19     b21   17     a21   15     t21
    H   21     b22   19     a22   17     t22
    H   21     b23   19     a23   17     t23
    H   21     b24   19     a24   17     t24
    C   19     b25   17     a25   15     t25
    O   25     b26   19     a26   17     t26
    N   25     b27   19     a27   17     t27
    H   27     b28   25     a28   19     t28
    C   27     b29   25     a29   19     t29
    H   29     b30   27     a30   25     t30
    C   29     b31   27     a31   25     t31
    H   31     b32   29     a32   27     t32
    H   31     b33   29     a33   27     t33
    H   31     b34   29     a34   27     t34
    C   29     b35   27     a35   25     t35
    O   35     b36   29     a36   27     t36
    N   35     b37   29     a37   27     t37
    H   37     b38   35     a38   29     t38
    C   37     b39   35     a39   29     t39
    H   39     b40   37     a40   35     t40
    H   39     b41   37     a41   35     t41
    H   39     b42   37     a42   35     t42
Variables
b2=   1.0817
b3=   1.0832
a3= 109.6299
b4=   1.0847
a4= 108.7336
t4= 117.6957
b5=   1.5131
a5= 108.5679
t5= 117.5883
b6=   1.2036
a6= 121.7257
t6=  42.3484
b7=   1.349
a7= 115.8038
t7= 221.2428
b8=   0.9952
a8= 121.3406
t8=   2.7965
b9=   1.4417
a9= 122.0797
t9= 180.1679
b10=   1.0825
a10= 108.3218
t10= -39.1332
b11=   1.5354
a11= 112.2048
t11=  81.2072
b12=   1.0846
a12= 110.3304
t12=  60.7265
b13=   1.0854
a13= 111.5276
t13= 181.3954
b14=   1.0817
a14= 109.0455
t14= -58.9234
b15=   1.525
a15= 107.4647
t15= 202.607
b16=   1.2059
a16= 121.5579
t16= -22.1505
b17=   1.3463
a17= 115.6839
t17= 158.5721
b18=   0.9953
a18= 119.4256
t18=   2.4624
b19=   1.4559
a19= 122.6652
t19= 180.0
b20=   1.0799
a20= 106.7033
t20=  28.5266
b21=   1.5222
a21= 110.3095
t21= 148.1067
b22=   1.0828
a22= 110.8936
t22=  62.6398
b23=   1.0836
a23= 110.2858
t23= -178.2947
b24=   1.0842
a24= 109.9866
t24= -58.5639
b25=   1.5328
a25= 108.8945
t25= 270.349
b26=   1.2049
a26= 121.4031
t26= -89.2029
b27=   1.3432
a27= 115.0945
t27=  90.0
b28=   0.9987
a28= 120.2681
t28=  -6.822
b29=   1.4441
a29= 121.8553
t29= -175.874
b30=   1.0818
a30= 107.6394
t30= -38.4699
b31=   1.5345
a31= 112.3563
t31=  81.6031
b32=   1.0844
a32= 110.2027
t32=  60.3627
b33=   1.0852
a33= 111.153
t33= -179.2975
b34=   1.0826
a34= 109.3898
t34= -59.5354
b35=   1.5251
a35= 107.6747
t35= -157.2526
b36=   1.2022
a36= 121.3706
t36= -30.4657
b37=   1.3468
a37= 115.5922
t37= -207.6929
b38=   0.9934
a38= 118.9605
t38= -10.854
b39=   1.4482
a39= 121.6291
t39= 179.3528
b40=   1.0802
a40= 109.8387
t40= -48.4054
b41=   1.0842
a41= 111.7035
t41=  71.9672
b42=   1.0818
a42= 108.7114
t42= -167.6561
