%chk=structure.chk
NProcShared=8
#HF/6-31G* SCF=tight opt=Z-Matrix Freq

Optimization of phi -169.0413

0   1
    H
    C    1      b2
    H    2      b3    1      a3
    H    2      b4    3      a4    1      t4
    C    2      b5    4      a5    1      t5
    O    5      b6    2      a6    1      t6
    N    5      b7    2      a7    1      t7
    H    7      b8    5      a8    2      t8
    C    7      b9    5      a9    2      t9
    H    9     b10    7     a10    5     t10
    C    9     b11    7     a11    5     t11
    H   11     b12    9     a12    7     t12
    H   11     b13    9     a13    7     t13
    H   11     b14    9     a14    7     t14
    C    9     b15    7     a15    5     t15
    O   15     b16    9     a16    7     t16
    N   15     b17    9     a17    7     t17
    H   17     b18   15     a18    9     t18
    C   17     b19   15     a19    9     t19
    H   19     b20   17     a20   15     t20
    C   19     b21   17     a21   15     t21
    H   21     b22   19     a22   17     t22
    H   21     b23   19     a23   17     t23
    H   21     b24   19     a24   17     t24
    C   19     b25   17     a25   15     t25
    O   25     b26   19     a26   17     t26
    N   25     b27   19     a27   17     t27
    H   27     b28   25     a28   19     t28
    C   27     b29   25     a29   19     t29
    H   29     b30   27     a30   25     t30
    C   29     b31   27     a31   25     t31
    H   31     b32   29     a32   27     t32
    H   31     b33   29     a33   27     t33
    H   31     b34   29     a34   27     t34
    C   29     b35   27     a35   25     t35
    O   35     b36   29     a36   27     t36
    N   35     b37   29     a37   27     t37
    H   37     b38   35     a38   29     t38
    C   37     b39   35     a39   29     t39
    H   39     b40   37     a40   35     t40
    H   39     b41   37     a41   35     t41
    H   39     b42   37     a42   35     t42
Variables
b2=   1.0817
b3=   1.0832
a3= 109.6371
b4=   1.0848
a4= 108.7088
t4= 117.7073
b5=   1.5132
a5= 108.558
t5= 117.6148
b6=   1.2036
a6= 121.6808
t6=  41.8721
b7=   1.3486
a7= 115.7819
t7= 220.6887
b8=   0.9951
a8= 121.2657
t8=   3.9997
b9=   1.4419
a9= 122.1228
t9= 179.9613
b10=   1.0833
a10= 108.1416
t10= -38.2907
b11=   1.5352
a11= 112.2304
t11=  81.8331
b12=   1.0837
a12= 110.8757
t12=  63.0979
b13=   1.0849
a13= 111.6846
t13= 183.7832
b14=   1.0818
a14= 108.8073
t14= -56.9021
b15=   1.526
a15= 107.3977
t15= 203.6856
b16=   1.202
a16= 121.792
t16= -19.9245
b17=   1.354
a17= 115.356
t17= 162.4237
b18=   0.9955
a18= 118.4075
t18=  -7.9927
b19=   1.4513
a19= 123.0372
t19= 180.0
b20=   1.0803
a20= 107.1693
t20=  21.1725
b21=   1.529
a21= 110.3566
t21= 140.1202
b22=   1.0871
a22= 111.0821
t22=  60.6603
b23=   1.0802
a23= 109.9132
t23= -179.7344
b24=   1.0839
a24= 110.0523
t24= -59.4457
b25=   1.5314
a25= 114.83
t25= 264.8196
b26=   1.2052
a26= 119.2269
t26= 180.0098
b27=   1.3406
a27= 117.6373
t27=   0.0
b28=   0.9941
a28= 120.8873
t28=   4.2151
b29=   1.4431
a29= 121.9926
t29= 175.6922
b30=   1.0831
a30= 108.3661
t30= -37.2885
b31=   1.5343
a31= 112.0417
t31=  82.9247
b32=   1.0845
a32= 110.3017
t32=  60.96
b33=   1.085
a33= 111.2711
t33= 181.4426
b34=   1.0819
a34= 109.1859
t34= -58.8145
b35=   1.5262
a35= 107.2937
t35= 204.2028
b36=   1.2046
a36= 121.4317
t36= -23.1061
b37=   1.3439
a37= 115.6771
t37= 159.1006
b38=   0.9935
a38= 118.9653
t38=  -9.4901
b39=   1.4488
a39= 121.7269
t39= 179.7068
b40=   1.0804
a40= 109.9548
t40= -49.7771
b41=   1.0839
a41= 111.5874
t41=  70.6799
b42=   1.0815
a42= 108.6367
t42= -169.0413
