%chk=structure.chk
NProcShared=8
#HF/6-31G* SCF=tight opt=Z-Matrix Freq

Optimization of phi -166.9611

0   1
    H
    C    1      b2
    H    2      b3    1      a3
    H    2      b4    3      a4    1      t4
    C    2      b5    4      a5    1      t5
    O    5      b6    2      a6    1      t6
    N    5      b7    2      a7    1      t7
    H    7      b8    5      a8    2      t8
    C    7      b9    5      a9    2      t9
    H    9     b10    7     a10    5     t10
    C    9     b11    7     a11    5     t11
    H   11     b12    9     a12    7     t12
    H   11     b13    9     a13    7     t13
    H   11     b14    9     a14    7     t14
    C    9     b15    7     a15    5     t15
    O   15     b16    9     a16    7     t16
    N   15     b17    9     a17    7     t17
    H   17     b18   15     a18    9     t18
    C   17     b19   15     a19    9     t19
    H   19     b20   17     a20   15     t20
    C   19     b21   17     a21   15     t21
    H   21     b22   19     a22   17     t22
    H   21     b23   19     a23   17     t23
    H   21     b24   19     a24   17     t24
    C   19     b25   17     a25   15     t25
    O   25     b26   19     a26   17     t26
    N   25     b27   19     a27   17     t27
    H   27     b28   25     a28   19     t28
    C   27     b29   25     a29   19     t29
    H   29     b30   27     a30   25     t30
    C   29     b31   27     a31   25     t31
    H   31     b32   29     a32   27     t32
    H   31     b33   29     a33   27     t33
    H   31     b34   29     a34   27     t34
    C   29     b35   27     a35   25     t35
    O   35     b36   29     a36   27     t36
    N   35     b37   29     a37   27     t37
    H   37     b38   35     a38   29     t38
    C   37     b39   35     a39   29     t39
    H   39     b40   37     a40   35     t40
    H   39     b41   37     a41   35     t41
    H   39     b42   37     a42   35     t42
Variables
b2=   1.0835
b3=   1.0836
a3= 109.1582
b4=   1.0819
a4= 109.4138
t4= 118.5995
b5=   1.5107
a5= 108.7348
t5= 116.8172
b6=   1.2028
a6= 121.9316
t6=  76.2075
b7=   1.3571
a7= 115.4211
t7= 257.6324
b8=   0.9951
a8= 119.1588
t8=  -6.6689
b9=   1.4491
a9= 123.1723
t9= 179.8057
b10=   1.0785
a10= 105.9888
t10= -16.0327
b11=   1.5246
a11= 112.463
t11= 104.3021
b12=   1.0828
a12= 110.8258
t12=  60.803
b13=   1.0858
a13= 110.8328
t13= 180.6943
b14=   1.0836
a14= 109.5808
t14= -59.6973
b15=   1.5306
a15= 105.3516
t15= 226.6457
b16=   1.1945
a16= 120.8979
t16= -81.6172
b17=   1.389
a17= 116.213
t17=  86.7645
b18=   1.0017
a18= 107.5471
t18= 197.3249
b19=   1.4693
a19= 119.7606
t19= 430.0
b20=   1.0841
a20= 109.3003
t20=  -8.6294
b21=   1.5284
a21= 111.3508
t21= 110.7826
b22=   1.0863
a22= 110.6735
t22=  60.0011
b23=   1.0806
a23= 109.8889
t23= -180.4912
b24=   1.0845
a24= 110.278
t24= -60.0248
b25=   1.5313
a25= 112.9742
t25= 235.5563
b26=   1.206
a26= 119.3926
t26= 178.9789
b27=   1.3368
a27= 116.581
t27=   0.0
b28=   0.9956
a28= 119.6041
t28=   0.4372
b29=   1.4444
a29= 122.2994
t29= 173.7921
b30=   1.0819
a30= 107.8695
t30= -33.3199
b31=   1.5325
a31= 112.2987
t31=  86.8687
b32=   1.0839
a32= 110.2157
t32=  60.1706
b33=   1.0854
a33= 110.886
t33= 180.5148
b34=   1.0826
a34= 109.3542
t34= -59.7783
b35=   1.5252
a35= 107.1704
t35= 207.6443
b36=   1.206
a36= 120.6914
t36= -39.0876
b37=   1.3437
a37= 115.7638
t37= 144.2953
b38=   0.994
a38= 117.6658
t38= -16.9233
b39=   1.4487
a39= 121.3838
t39= 184.7104
b40=   1.0797
a40= 109.4628
t40= -48.0932
b41=   1.0837
a41= 111.2947
t41=  72.5285
b42=   1.082
a42= 108.7362
t42= -166.9611
