%chk=structure.chk
NProcShared=8
#HF/6-31G* SCF=tight opt=Z-Matrix Freq

Optimization of phi 310

0   1
    H
    C    1      b2
    H    2      b3    1      a3
    H    2      b4    3      a4    1      t4
    C    2      b5    4      a5    1      t5
    O    5      b6    2      a6    1      t6
    N    5      b7    2      a7    1      t7
    H    7      b8    5      a8    2      t8
    C    7      b9    5      a9    2      t9
    H    9     b10    7     a10    5     t10
    C    9     b11    7     a11    5     t11
    H   11     b12    9     a12    7     t12
    H   11     b13    9     a13    7     t13
    H   11     b14    9     a14    7     t14
    C    9     b15    7     a15    5     t15
    O   15     b16    9     a16    7     t16
    N   15     b17    9     a17    7     t17
    H   17     b18   15     a18    9     t18
    C   17     b19   15     a19    9     t19
    H   19     b20   17     a20   15     t20
    C   19     b21   17     a21   15     t21
    H   21     b22   19     a22   17     t22
    H   21     b23   19     a23   17     t23
    H   21     b24   19     a24   17     t24
    C   19     b25   17     a25   15     t25
    O   25     b26   19     a26   17     t26
    N   25     b27   19     a27   17     t27
    H   27     b28   25     a28   19     t28
    C   27     b29   25     a29   19     t29
    H   29     b30   27     a30   25     t30
    C   29     b31   27     a31   25     t31
    H   31     b32   29     a32   27     t32
    H   31     b33   29     a33   27     t33
    H   31     b34   29     a34   27     t34
    C   29     b35   27     a35   25     t35
    O   35     b36   29     a36   27     t36
    N   35     b37   29     a37   27     t37
    H   37     b38   35     a38   29     t38
    C   37     b39   35     a39   29     t39
    H   39     b40   37     a40   35     t40
    H   39     b41   37     a41   35     t41
    H   39     b42   37     a42   35     t42
Variables
b2=   1.0824
b3=   1.0831
a3= 110.0385
b4=   1.0832
a4= 109.2453
t4= 118.1825
b5=   1.5078
a5= 108.3154
t5= 116.6214
b6=   1.2097
a6= 121.3439
t6=  60.11
b7=   1.35
a7= 116.9669
t7= 239.4658
b8=   0.9952
a8= 118.7079
t8=  13.9995
b9=   1.4487
a9= 121.4373
t9= 174.6304
b10=   1.0761
a10= 107.1413
t10=  34.0812
b11=   1.5289
a11= 110.2745
t11= 152.7343
b12=   1.0833
a12= 110.7341
t12=  60.983
b13=   1.0843
a13= 110.3716
t13= 180.5839
b14=   1.0838
a14= 109.7991
t14= -59.7131
b15=   1.5313
a15= 110.6092
t15= 272.5035
b16=   1.199
a16= 119.4172
t16= -57.8162
b17=   1.3687
a17= 118.0097
t17= 130.2974
b18=   1.0019
a18= 110.2703
t18= 170.4619
b19=   1.4674
a19= 125.3918
t19= 310.0
b20=   1.0782
a20= 108.5272
t20=  24.6825
b21=   1.5219
a21= 110.5133
t21= 145.5557
b22=   1.082
a22= 110.7289
t22=  60.1707
b23=   1.0847
a23= 110.5834
t23= -180.1717
b24=   1.0839
a24= 109.6937
t24= -60.226
b25=   1.5343
a25= 107.1613
t25= 266.9365
b26=   1.206
a26= 120.6524
t26= -85.5806
b27=   1.3431
a27= 116.1054
t27=  90.0
b28=   1.0003
a28= 120.7126
t28=   7.3262
b29=   1.4479
a29= 120.9414
t29= -172.4798
b30=   1.0825
a30= 108.1219
t30= -43.9342
b31=   1.5343
a31= 112.1872
t31=  76.206
b32=   1.0835
a32= 110.1049
t32=  59.8414
b33=   1.0858
a33= 110.7661
t33= -179.8513
b34=   1.0815
a34= 109.5802
t34= -60.1883
b35=   1.523
a35= 108.2419
t35= -163.4832
b36=   1.204
a36= 121.4177
t36= -40.8501
b37=   1.3446
a37= 115.7944
t37= -217.8661
b38=   0.993
a38= 119.0592
t38=  -9.6945
b39=   1.4481
a39= 121.6256
t39= 178.4642
b40=   1.0809
a40= 110.1415
t40= -52.2568
b41=   1.0837
a41= 111.4869
t41=  68.1889
b42=   1.0816
a42= 108.6337
t42= -171.5868
