%chk=structure.chk
NProcShared=8
#HF/6-31G* SCF=tight opt=Z-Matrix Freq

Optimization of phi 380.0

0   1
    H
    C    1      b2
    H    2      b3    1      a3
    H    2      b4    3      a4    1      t4
    C    2      b5    4      a5    1      t5
    O    5      b6    2      a6    1      t6
    N    5      b7    2      a7    1      t7
    H    7      b8    5      a8    2      t8
    C    7      b9    5      a9    2      t9
    H    9     b10    7     a10    5     t10
    C    9     b11    7     a11    5     t11
    H   11     b12    9     a12    7     t12
    H   11     b13    9     a13    7     t13
    H   11     b14    9     a14    7     t14
    C    9     b15    7     a15    5     t15
    O   15     b16    9     a16    7     t16
    N   15     b17    9     a17    7     t17
    H   17     b18   15     a18    9     t18
    C   17     b19   15     a19    9     t19
    H   19     b20   17     a20   15     t20
    C   19     b21   17     a21   15     t21
    H   21     b22   19     a22   17     t22
    H   21     b23   19     a23   17     t23
    H   21     b24   19     a24   17     t24
    C   19     b25   17     a25   15     t25
    O   25     b26   19     a26   17     t26
    N   25     b27   19     a27   17     t27
    H   27     b28   25     a28   19     t28
    C   27     b29   25     a29   19     t29
    H   29     b30   27     a30   25     t30
    C   29     b31   27     a31   25     t31
    H   31     b32   29     a32   27     t32
    H   31     b33   29     a33   27     t33
    H   31     b34   29     a34   27     t34
    C   29     b35   27     a35   25     t35
    O   35     b36   29     a36   27     t36
    N   35     b37   29     a37   27     t37
    H   37     b38   35     a38   29     t38
    C   37     b39   35     a39   29     t39
    H   39     b40   37     a40   35     t40
    H   39     b41   37     a41   35     t41
    H   39     b42   37     a42   35     t42
Variables
b2=   1.082
b3=   1.0832
a3= 110.0892
b4=   1.0841
a4= 108.9953
t4= 117.9924
b5=   1.5092
a5= 108.2428
t5= 116.7866
b6=   1.2088
a6= 121.1121
t6=  50.0892
b7=   1.3489
a7= 116.76
t7= 229.1836
b8=   0.9952
a8= 119.146
t8=   7.2413
b9=   1.4541
a9= 123.1892
t9= 178.0503
b10=   1.0761
a10= 106.484
t10=  20.4002
b11=   1.5244
a11= 110.6303
t11= 139.1579
b12=   1.082
a12= 110.9916
t12=  61.3026
b13=   1.0843
a13= 110.4721
t13= 180.6379
b14=   1.084
a14= 109.6573
t14= -59.6712
b15=   1.5347
a15= 107.9374
t15= 260.2907
b16=   1.2024
a16= 119.469
t16= -84.8477
b17=   1.3557
a17= 119.3972
t17=  89.6328
b18=   1.0
a18= 111.8856
t18= 180.3777
b19=   1.4589
a19= 130.3773
t19= 380.0
b20=   1.0763
a20= 108.559
t20= -28.2834
b21=   1.5247
a21= 112.3153
t21=  94.1582
b22=   1.082
a22= 110.7631
t22=  59.7272
b23=   1.085
a23= 110.608
t23= -180.471
b24=   1.0852
a24= 109.981
t24= -60.7423
b25=   1.5329
a25= 105.584
t25= 215.5976
b26=   1.2056
a26= 120.9242
t26= -87.2097
b27=   1.3425
a27= 115.7163
t27=  90.0
b28=   1.0
a28= 120.34
t28=   1.533
b29=   1.4471
a29= 121.2409
t29= -172.937
b30=   1.0826
a30= 108.123
t30= -46.4116
b31=   1.5343
a31= 112.5095
t31=  73.8919
b32=   1.0837
a32= 110.067
t32=  60.2025
b33=   1.0858
a33= 110.727
t33= -179.6997
b34=   1.0814
a34= 109.638
t34= -60.0034
b35=   1.5235
a35= 107.9273
t35= -165.9282
b36=   1.204
a36= 121.2582
t36= -41.9298
b37=   1.3447
a37= 115.8875
t37= -218.9197
b38=   0.993
a38= 119.0023
t38= -10.2581
b39=   1.4482
a39= 121.6166
t39= 178.814
b40=   1.0807
a40= 110.0448
t40= -51.2709
b41=   1.0838
a41= 111.5417
t41=  69.1393
b42=   1.0816
a42= 108.6499
t42= -170.5757
