%chk=structure.chk
NProcShared=8
#P hf/6-31G* Opt=(Tight,CalcFC) Freq SCF(Conver=6) Test

Optimization of phi 450

0   1
    H
    C    1      b2
    H    2      b3    1      a3
    H    2      b4    3      a4    1      t4
    C    2      b5    4      a5    1      t5
    O    5      b6    2      a6    1      t6
    N    5      b7    2      a7    1      t7
    H    7      b8    5      a8    2      t8
    C    7      b9    5      a9    2      t9
    H    9     b10    7     a10    5     t10
    C    9     b11    7     a11    5     t11
    H   11     b12    9     a12    7     t12
    H   11     b13    9     a13    7     t13
    H   11     b14    9     a14    7     t14
    C    9     b15    7     a15    5     t15
    O   15     b16    9     a16    7     t16
    N   15     b17    9     a17    7     t17
    H   17     b18   15     a18    9     t18
    C   17     b19   15     a19    9     t19
    H   19     b20   17     a20   15     t20
    C   19     b21   17     a21   15     t21
    H   21     b22   19     a22   17     t22
    H   21     b23   19     a23   17     t23
    H   21     b24   19     a24   17     t24
    C   19     b25   17     a25   15     t25
    O   25     b26   19     a26   17     t26
    N   25     b27   19     a27   17     t27
    H   27     b28   25     a28   19     t28
    C   27     b29   25     a29   19     t29
    H   29     b30   27     a30   25     t30
    C   29     b31   27     a31   25     t31
    H   31     b32   29     a32   27     t32
    H   31     b33   29     a33   27     t33
    H   31     b34   29     a34   27     t34
    C   29     b35   27     a35   25     t35
    O   35     b36   29     a36   27     t36
    N   35     b37   29     a37   27     t37
    H   37     b38   35     a38   29     t38
    C   37     b39   35     a39   29     t39
    H   39     b40   37     a40   35     t40
    H   39     b41   37     a41   35     t41
    H   39     b42   37     a42   35     t42
Variables
b2=   1.0829
b3=   1.0836
a3= 109.5025
b4=   1.0829
a4= 109.1947
t4= 118.1725
b5=   1.5111
a5= 108.405
t5= 116.8642
b6=   1.2019
a6= 121.6567
t6=  66.1757
b7=   1.358
a7= 115.802
t7= 246.1076
b8=   0.9946
a8= 118.9827
t8=   1.7224
b9=   1.4469
a9= 123.0882
t9= 178.404
b10=   1.0804
a10= 105.6863
t10=  11.8047
b11=   1.5233
a11= 111.5739
t11= 131.4722
b12=   1.0836
a12= 111.194
t12=  60.7886
b13=   1.0836
a13= 110.7125
t13= 180.2312
b14=   1.0837
a14= 109.6476
t14= -59.785
b15=   1.5316
a15= 108.3103
t15= 255.0764
b16=   1.1912
a16= 122.1762
t16= -106.1077
b17=   1.4096
a17= 114.9461
t17=  64.4773
b18=   1.0042
a18= 106.0247
t18= 209.7073
b19=   1.472
a19= 115.7684
t19= 450.0
b20=   1.0848
a20= 107.9278
t20= -36.701
b21=   1.5289
a21= 112.9867
t21=  83.533
b22=   1.0865
a22= 110.6074
t22=  61.9308
b23=   1.081
a23= 110.0647
t23= -178.5485
b24=   1.0838
a24= 110.3694
t24= -57.7516
b25=   1.5302
a25= 112.0407
t25= 209.2419
b26=   1.2057
a26= 119.5738
t26= 180.6486
b27=   1.339
a27= 116.6021
t27=   0.0
b28=   0.9955
a28= 118.7377
t28=  10.1799
b29=   1.4434
a29= 121.646
t29= 172.365
b30=   1.0831
a30= 108.4615
t30= -34.0622
b31=   1.5334
a31= 111.9701
t31=  86.135
b32=   1.0841
a32= 110.1973
t32=  60.5031
b33=   1.0853
a33= 111.0985
t33= 181.0205
b34=   1.0822
a34= 109.2012
t34= -59.2423
b35=   1.525
a35= 107.5594
t35= 206.9998
b36=   1.2055
a36= 121.4291
t36= -31.3781
b37=   1.3444
a37= 115.574
t37= 151.7539
b38=   0.9936
a38= 118.4817
t38= -13.4213
b39=   1.4478
a39= 121.6672
t39= 181.081
b40=   1.08
a40= 109.713
t40= -48.3945
b41=   1.0844
a41= 111.6774
t41=  72.1287
b42=   1.0818
a42= 108.7273
t42= -167.4896
