%chk=structure.chk
NProcShared=8
#HF/6-31G* SCF=tight opt=Z-Matrix Freq

Optimization of phi -170.7689

0   1
    H
    C    1      b2
    H    2      b3    1      a3
    H    2      b4    3      a4    1      t4
    C    2      b5    4      a5    1      t5
    O    5      b6    2      a6    1      t6
    N    5      b7    2      a7    1      t7
    H    7      b8    5      a8    2      t8
    C    7      b9    5      a9    2      t9
    H    9     b10    7     a10    5     t10
    C    9     b11    7     a11    5     t11
    H   11     b12    9     a12    7     t12
    H   11     b13    9     a13    7     t13
    H   11     b14    9     a14    7     t14
    C    9     b15    7     a15    5     t15
    O   15     b16    9     a16    7     t16
    N   15     b17    9     a17    7     t17
    H   17     b18   15     a18    9     t18
    C   17     b19   15     a19    9     t19
    H   19     b20   17     a20   15     t20
    C   19     b21   17     a21   15     t21
    H   21     b22   19     a22   17     t22
    H   21     b23   19     a23   17     t23
    H   21     b24   19     a24   17     t24
    C   19     b25   17     a25   15     t25
    O   25     b26   19     a26   17     t26
    N   25     b27   19     a27   17     t27
    H   27     b28   25     a28   19     t28
    C   27     b29   25     a29   19     t29
    H   29     b30   27     a30   25     t30
    C   29     b31   27     a31   25     t31
    H   31     b32   29     a32   27     t32
    H   31     b33   29     a33   27     t33
    H   31     b34   29     a34   27     t34
    C   29     b35   27     a35   25     t35
    O   35     b36   29     a36   27     t36
    N   35     b37   29     a37   27     t37
    H   37     b38   35     a38   29     t38
    C   37     b39   35     a39   29     t39
    H   39     b40   37     a40   35     t40
    H   39     b41   37     a41   35     t41
    H   39     b42   37     a42   35     t42
Variables
b2=   1.0821
b3=   1.0832
a3= 110.0877
b4=   1.084
a4= 109.0321
t4= 118.0065
b5=   1.509
a5= 108.2381
t5= 116.7499
b6=   1.2092
a6= 121.1156
t6=  51.5472
b7=   1.3488
a7= 116.7916
t7= 230.7105
b8=   0.9953
a8= 119.162
t8=   8.2171
b9=   1.4539
a9= 123.036
t9= 177.5645
b10=   1.0757
a10= 106.5614
t10=  21.7819
b11=   1.5249
a11= 110.5613
t11= 140.5128
b12=   1.082
a12= 110.9324
t12=  61.3981
b13=   1.0845
a13= 110.4602
t13= 180.7688
b14=   1.0839
a14= 109.6766
t14= -59.5715
b15=   1.534
a15= 108.0577
t15= 261.3391
b16=   1.2033
a16= 119.2066
t16= -80.4912
b17=   1.3528
a17= 119.7521
t17=  95.7948
b18=   0.9997
a18= 112.3898
t18= 179.5851
b19=   1.4581
a19= 131.2105
t19= 370.0
b20=   1.0762
a20= 108.6108
t20= -21.0369
b21=   1.5244
a21= 112.0969
t21= 101.2656
b22=   1.0819
a22= 110.7418
t22=  59.7297
b23=   1.085
a23= 110.605
t23= -180.4791
b24=   1.085
a24= 109.9249
t24= -60.7107
b25=   1.5334
a25= 105.7797
t25= 222.6934
b26=   1.2056
a26= 120.8997
t26= -86.9636
b27=   1.3424
a27= 115.7431
t27=  90.0
b28=   1.0
a28= 120.4026
t28=   2.5904
b29=   1.4471
a29= 121.2281
t29= -173.0692
b30=   1.0826
a30= 108.135
t30= -45.9555
b31=   1.5343
a31= 112.4643
t31=  74.3239
b32=   1.0837
a32= 110.0725
t32=  60.2093
b33=   1.0858
a33= 110.7321
t33= -179.6766
b34=   1.0815
a34= 109.6308
t34= -59.9916
b35=   1.5235
a35= 107.9638
t35= -165.484
b36=   1.204
a36= 121.2737
t36= -41.7924
b37=   1.3446
a37= 115.8777
t37= -218.7929
b38=   0.993
a38= 119.0139
t38= -10.1548
b39=   1.4482
a39= 121.6161
t39= 178.762
b40=   1.0807
a40= 110.0612
t40= -51.4604
b41=   1.0838
a41= 111.531
t41=  68.9566
b42=   1.0816
a42= 108.6444
t42= -170.7689
