%chk=structure.chk
NProcShared=8
#P hf/6-31G* Opt=(Tight,CalcFC) Freq SCF(Conver=6) Test

Optimization of phi 310

0   1
    H
    C    1      b2
    H    2      b3    1      a3
    H    2      b4    3      a4    1      t4
    C    2      b5    4      a5    1      t5
    O    5      b6    2      a6    1      t6
    N    5      b7    2      a7    1      t7
    H    7      b8    5      a8    2      t8
    C    7      b9    5      a9    2      t9
    H    9     b10    7     a10    5     t10
    C    9     b11    7     a11    5     t11
    H   11     b12    9     a12    7     t12
    H   11     b13    9     a13    7     t13
    H   11     b14    9     a14    7     t14
    C    9     b15    7     a15    5     t15
    O   15     b16    9     a16    7     t16
    N   15     b17    9     a17    7     t17
    H   17     b18   15     a18    9     t18
    C   17     b19   15     a19    9     t19
    H   19     b20   17     a20   15     t20
    C   19     b21   17     a21   15     t21
    H   21     b22   19     a22   17     t22
    H   21     b23   19     a23   17     t23
    H   21     b24   19     a24   17     t24
    C   19     b25   17     a25   15     t25
    O   25     b26   19     a26   17     t26
    N   25     b27   19     a27   17     t27
    H   27     b28   25     a28   19     t28
    C   27     b29   25     a29   19     t29
    H   29     b30   27     a30   25     t30
    C   29     b31   27     a31   25     t31
    H   31     b32   29     a32   27     t32
    H   31     b33   29     a33   27     t33
    H   31     b34   29     a34   27     t34
    C   29     b35   27     a35   25     t35
    O   35     b36   29     a36   27     t36
    N   35     b37   29     a37   27     t37
    H   37     b38   35     a38   29     t38
    C   37     b39   35     a39   29     t39
    H   39     b40   37     a40   35     t40
    H   39     b41   37     a41   35     t41
    H   39     b42   37     a42   35     t42
Variables
b2=   1.0834
b3=   1.0852
a3= 108.556
b4=   1.0812
a4= 108.0353
t4= 118.9549
b5=   1.5132
a5= 108.7452
t5= 124.03
b6=   1.2035
a6= 121.8513
t6= 158.1
b7=   1.3492
a7= 115.6122
t7= 336.6381
b8=   0.9951
a8= 121.126
t8=   4.1999
b9=   1.442
a9= 122.0824
t9= 180.0698
b10=   1.0812
a10= 107.822
t10= -36.8483
b11=   1.5353
a11= 112.4135
t11=  82.9206
b12=   1.0846
a12= 110.3606
t12=  61.0998
b13=   1.0838
a13= 111.2948
t13= 181.7979
b14=   1.082
a14= 108.7804
t14= -58.3709
b15=   1.5235
a15= 107.5969
t15= 203.5297
b16=   1.1993
a16= 121.0131
t16= -21.4764
b17=   1.3737
a17= 117.5966
t17= 167.5837
b18=   1.0011
a18= 109.5421
t18= 169.1162
b19=   1.455
a19= 125.7688
t19= 310.0
b20=   1.0816
a20= 108.8316
t20=  50.3276
b21=   1.5299
a21= 108.9381
t21= 167.7647
b22=   1.0866
a22= 110.803
t22=  61.6079
b23=   1.08
a23= 110.1263
t23= -178.5918
b24=   1.0831
a24= 109.736
t24= -57.9467
b25=   1.5345
a25= 116.5518
t25= 291.9941
b26=   1.2049
a26= 118.4286
t26= 179.4581
b27=   1.3431
a27= 118.8297
t27=   0.0
b28=   0.9967
a28= 122.8677
t28=  -0.1218
b29=   1.4474
a29= 120.8618
t29= 179.0299
b30=   1.0819
a30= 107.892
t30= -37.6502
b31=   1.5342
a31= 112.0289
t31=  82.3494
b32=   1.0845
a32= 110.2811
t32=  60.896
b33=   1.0849
a33= 111.0886
t33= 181.205
b34=   1.0821
a34= 109.3687
t34= -59.0796
b35=   1.5249
a35= 107.6534
t35= 203.5768
b36=   1.2025
a36= 121.2922
t36= -26.4591
b37=   1.3456
a37= 115.5547
t37= 156.1006
b38=   0.9936
a38= 118.9517
t38= -10.6507
b39=   1.4486
a39= 121.686
t39= 179.4736
b40=   1.0801
a40= 109.7898
t40= -47.4499
b41=   1.0842
a41= 111.6941
t41=  72.946
b42=   1.0816
a42= 108.704
t42= -166.6903
