%chk=structure.chk
NProcShared=8
#P hf/6-31G* Opt=(Tight,CalcFC) Freq SCF(Conver=6) Test

Optimization of phi 540

0   1
    H
    C    1      b2
    H    2      b3    1      a3
    H    2      b4    3      a4    1      t4
    C    2      b5    4      a5    1      t5
    O    5      b6    2      a6    1      t6
    N    5      b7    2      a7    1      t7
    H    7      b8    5      a8    2      t8
    C    7      b9    5      a9    2      t9
    H    9     b10    7     a10    5     t10
    C    9     b11    7     a11    5     t11
    H   11     b12    9     a12    7     t12
    H   11     b13    9     a13    7     t13
    H   11     b14    9     a14    7     t14
    C    9     b15    7     a15    5     t15
    O   15     b16    9     a16    7     t16
    N   15     b17    9     a17    7     t17
    H   17     b18   15     a18    9     t18
    C   17     b19   15     a19    9     t19
    H   19     b20   17     a20   15     t20
    C   19     b21   17     a21   15     t21
    H   21     b22   19     a22   17     t22
    H   21     b23   19     a23   17     t23
    H   21     b24   19     a24   17     t24
    C   19     b25   17     a25   15     t25
    O   25     b26   19     a26   17     t26
    N   25     b27   19     a27   17     t27
    H   27     b28   25     a28   19     t28
    C   27     b29   25     a29   19     t29
    H   29     b30   27     a30   25     t30
    C   29     b31   27     a31   25     t31
    H   31     b32   29     a32   27     t32
    H   31     b33   29     a33   27     t33
    H   31     b34   29     a34   27     t34
    C   29     b35   27     a35   25     t35
    O   35     b36   29     a36   27     t36
    N   35     b37   29     a37   27     t37
    H   37     b38   35     a38   29     t38
    C   37     b39   35     a39   29     t39
    H   39     b40   37     a40   35     t40
    H   39     b41   37     a41   35     t41
    H   39     b42   37     a42   35     t42
Variables
b2=   1.0812
b3=   1.0836
a3= 110.113
b4=   1.0853
a4= 108.6939
t4= 118.3784
b5=   1.5088
a5= 108.3852
t5= 117.3455
b6=   1.2043
a6= 122.2049
t6=  40.9341
b7=   1.3603
a7= 117.0607
t7= 221.6649
b8=   0.9953
a8= 117.9368
t8= -11.2098
b9=   1.4548
a9= 120.3115
t9= 192.3082
b10=   1.0816
a10= 109.6986
t10=  48.5591
b11=   1.5286
a11= 109.8833
t11= 169.0216
b12=   1.0857
a12= 111.2472
t12=  59.9424
b13=   1.0818
a13= 109.6497
t13= 179.9412
b14=   1.0855
a14= 110.5405
t14= -60.755
b15=   1.5295
a15= 113.6572
t15= 292.0929
b16=   1.1995
a16= 119.2461
t16= -205.1359
b17=   1.3509
a17= 116.7623
t17= -28.2446
b18=   0.9948
a18= 117.9529
t18= 360.1556
b19=   1.4479
a19= 123.3431
t19= 540.0
b20=   1.0797
a20= 106.5879
t20=   6.3721
b21=   1.5298
a21= 111.2626
t21= 125.4559
b22=   1.087
a22= 110.9895
t22=  60.4041
b23=   1.0806
a23= 110.1958
t23= -179.7665
b24=   1.0839
a24= 109.7686
t24= -59.3678
b25=   1.5332
a25= 113.7293
t25= 249.8465
b26=   1.2038
a26= 119.4698
t26= 181.648
b27=   1.3466
a27= 117.2603
t27=   0.0
b28=   0.9956
a28= 118.6927
t28=  14.4091
b29=   1.457
a29= 121.5186
t29= 179.633
b30=   1.0837
a30= 108.4843
t30= -46.3081
b31=   1.5265
a31= 112.222
t31=  74.225
b32=   1.0818
a32= 110.0473
t32=  61.3045
b33=   1.0858
a33= 110.2376
t33= 180.878
b34=   1.0811
a34= 109.7801
t34= -59.609
b35=   1.53
a35= 106.6143
t35= 195.006
b36=   1.2041
a36= 121.1397
t36= -76.0463
b37=   1.3443
a37= 115.8659
t37= 104.0674
b38=   0.9938
a38= 118.0638
t38= -10.9318
b39=   1.4487
a39= 121.0455
t39= 188.5393
b40=   1.0818
a40= 108.6382
t40= -172.738
b41=   1.0804
a41= 109.696
t41= -53.7628
b42=   1.0835
a42= 111.264
t42= -293.2354
