%chk=structure.chk
NProcShared=8
#HF/6-31G* SCF=tight opt=Z-Matrix Freq

Optimization of phi -163.1094

0   1
    H
    C    1      b2
    H    2      b3    1      a3
    H    2      b4    3      a4    1      t4
    C    2      b5    4      a5    1      t5
    O    5      b6    2      a6    1      t6
    N    5      b7    2      a7    1      t7
    H    7      b8    5      a8    2      t8
    C    7      b9    5      a9    2      t9
    H    9     b10    7     a10    5     t10
    C    9     b11    7     a11    5     t11
    H   11     b12    9     a12    7     t12
    H   11     b13    9     a13    7     t13
    H   11     b14    9     a14    7     t14
    C    9     b15    7     a15    5     t15
    O   15     b16    9     a16    7     t16
    N   15     b17    9     a17    7     t17
    H   17     b18   15     a18    9     t18
    C   17     b19   15     a19    9     t19
    H   19     b20   17     a20   15     t20
    C   19     b21   17     a21   15     t21
    H   21     b22   19     a22   17     t22
    H   21     b23   19     a23   17     t23
    H   21     b24   19     a24   17     t24
    C   19     b25   17     a25   15     t25
    O   25     b26   19     a26   17     t26
    N   25     b27   19     a27   17     t27
    H   27     b28   25     a28   19     t28
    C   27     b29   25     a29   19     t29
    H   29     b30   27     a30   25     t30
    C   29     b31   27     a31   25     t31
    H   31     b32   29     a32   27     t32
    H   31     b33   29     a33   27     t33
    H   31     b34   29     a34   27     t34
    C   29     b35   27     a35   25     t35
    O   35     b36   29     a36   27     t36
    N   35     b37   29     a37   27     t37
    H   37     b38   35     a38   29     t38
    C   37     b39   35     a39   29     t39
    H   39     b40   37     a40   35     t40
    H   39     b41   37     a41   35     t41
    H   39     b42   37     a42   35     t42
Variables
b2=   1.0847
b3=   1.0836
a3= 108.761
b4=   1.0812
a4= 109.5872
t4= 118.8014
b5=   1.5114
a5= 109.0273
t5= 117.4675
b6=   1.2043
a6= 122.0681
t6=  86.7965
b7=   1.3533
a7= 114.8819
t7= 267.5002
b8=   0.9959
a8= 119.2581
t8=   7.533
b9=   1.4451
a9= 122.9607
t9= 169.9836
b10=   1.0769
a10= 106.8868
t10=  -6.9894
b11=   1.5325
a11= 111.6986
t11= 113.0718
b12=   1.0837
a12= 110.2966
t12=  59.3688
b13=   1.0862
a13= 111.5248
t13= 179.726
b14=   1.083
a14= 109.39
t14= -60.3409
b15=   1.5285
a15= 106.9953
t15= 233.0871
b16=   1.2025
a16= 119.7945
t16= -40.9543
b17=   1.3566
a17= 119.1615
t17= 138.4188
b18=   0.9981
a18= 112.6072
t18= 177.1961
b19=   1.4521
a19= 129.0517
t19= 370.0
b20=   1.0824
a20= 109.8036
t20=  31.4118
b21=   1.5296
a21= 109.3468
t21= 149.6474
b22=   1.0863
a22= 110.7539
t22=  60.2733
b23=   1.08
a23= 109.7828
t23= -180.1556
b24=   1.0841
a24= 110.1687
t24= -59.8181
b25=   1.5336
a25= 115.2451
t25= 273.5626
b26=   1.205
a26= 118.6814
t26= 178.4321
b27=   1.3385
a27= 117.637
t27=   0.0
b28=   0.9948
a28= 120.9614
t28=  -1.6158
b29=   1.4446
a29= 121.9812
t29= 172.2097
b30=   1.0812
a30= 107.5734
t30= -29.1891
b31=   1.533
a31= 112.1438
t31=  90.8712
b32=   1.0844
a32= 110.356
t32=  60.4668
b33=   1.0849
a33= 111.0382
t33= 180.8659
b34=   1.0828
a34= 109.3164
t34= -59.3423
b35=   1.526
a35= 107.4895
t35= 212.2006
b36=   1.2056
a36= 120.9641
t36= -30.8194
b37=   1.3446
a37= 115.2725
t37= 152.9086
b38=   0.9944
a38= 117.4588
t38= -18.0275
b39=   1.4484
a39= 121.6397
t39= 184.3219
b40=   1.0794
a40= 109.2876
t40= -44.2733
b41=   1.0836
a41= 111.3738
t41=  76.3494
b42=   1.0821
a42= 108.8257
t42= -163.1094
