%chk=structure.chk
NProcShared=8
#HF/6-31G* SCF=tight opt=Z-Matrix Freq

Optimization of phi 500.0

0   1
    H
    C    1      b2
    H    2      b3    1      a3
    H    2      b4    3      a4    1      t4
    C    2      b5    4      a5    1      t5
    O    5      b6    2      a6    1      t6
    N    5      b7    2      a7    1      t7
    H    7      b8    5      a8    2      t8
    C    7      b9    5      a9    2      t9
    H    9     b10    7     a10    5     t10
    C    9     b11    7     a11    5     t11
    H   11     b12    9     a12    7     t12
    H   11     b13    9     a13    7     t13
    H   11     b14    9     a14    7     t14
    C    9     b15    7     a15    5     t15
    O   15     b16    9     a16    7     t16
    N   15     b17    9     a17    7     t17
    H   17     b18   15     a18    9     t18
    C   17     b19   15     a19    9     t19
    H   19     b20   17     a20   15     t20
    C   19     b21   17     a21   15     t21
    H   21     b22   19     a22   17     t22
    H   21     b23   19     a23   17     t23
    H   21     b24   19     a24   17     t24
    C   19     b25   17     a25   15     t25
    O   25     b26   19     a26   17     t26
    N   25     b27   19     a27   17     t27
    H   27     b28   25     a28   19     t28
    C   27     b29   25     a29   19     t29
    H   29     b30   27     a30   25     t30
    C   29     b31   27     a31   25     t31
    H   31     b32   29     a32   27     t32
    H   31     b33   29     a33   27     t33
    H   31     b34   29     a34   27     t34
    C   29     b35   27     a35   25     t35
    O   35     b36   29     a36   27     t36
    N   35     b37   29     a37   27     t37
    H   37     b38   35     a38   29     t38
    C   37     b39   35     a39   29     t39
    H   39     b40   37     a40   35     t40
    H   39     b41   37     a41   35     t41
    H   39     b42   37     a42   35     t42
Variables
b2=   1.0808
b3=   1.0841
a3= 110.1542
b4=   1.0857
a4= 108.4423
t4= 118.3497
b5=   1.5099
a5= 108.4487
t5= 117.8565
b6=   1.2023
a6= 122.2654
t6=  33.3611
b7=   1.3616
a7= 116.662
t7= 213.7614
b8=   0.9954
a8= 117.7451
t8= -10.1449
b9=   1.4544
a9= 120.5495
t9= 194.5549
b10=   1.0819
a10= 109.9002
t10=  52.4002
b11=   1.529
a11= 109.7246
t11= 172.828
b12=   1.0854
a12= 111.2524
t12=  60.1646
b13=   1.0822
a13= 109.6337
t13= 180.1111
b14=   1.0858
a14= 110.6961
t14= -60.6542
b15=   1.533
a15= 113.5135
t15= 296.8346
b16=   1.196
a16= 118.7508
t16= -210.9848
b17=   1.366
a17= 117.9276
t17= -30.5079
b18=   0.9963
a18= 112.7937
t18= 363.7983
b19=   1.4712
a19= 118.0363
t19= 500.0
b20=   1.0833
a20= 108.2993
t20= -33.0366
b21=   1.5228
a21= 111.8501
t21=  87.9925
b22=   1.0813
a22= 110.1548
t22=  61.2477
b23=   1.0857
a23= 110.3531
t23= -178.9815
b24=   1.0809
a24= 109.403
t24= -59.2565
b25=   1.5312
a25= 107.096
t25= 209.376
b26=   1.2028
a26= 122.167
t26= -90.0628
b27=   1.3496
a27= 115.4539
t27=  90.0
b28=   0.9993
a28= 120.6854
t28=  -6.02
b29=   1.4473
a29= 120.9494
t29= -178.7961
b30=   1.0824
a30= 107.7435
t30= -45.2046
b31=   1.5343
a31= 112.9839
t31=  74.803
b32=   1.0841
a32= 110.2631
t32=  60.8082
b33=   1.0856
a33= 110.7398
t33= -179.2428
b34=   1.0815
a34= 109.5432
t34= -59.6229
b35=   1.5233
a35= 107.8339
t35= -164.4668
b36=   1.2044
a36= 121.085
t36= -41.3178
b37=   1.344
a37= 115.968
t37= -218.4311
b38=   0.9932
a38= 118.926
t38= -10.8614
b39=   1.4488
a39= 121.6386
t39= 179.2652
b40=   1.0838
a40= 111.5817
t40=  70.3246
b41=   1.0816
a41= 108.6524
t41= 190.6597
b42=   1.0804
a42= 109.936
t42= -50.0579
