%chk=structure.chk
NProcShared=8
#HF/6-31G* SCF=tight opt=Z-Matrix Freq

Optimization of phi 410

0   1
    H
    C    1      b2
    H    2      b3    1      a3
    H    2      b4    3      a4    1      t4
    C    2      b5    4      a5    1      t5
    O    5      b6    2      a6    1      t6
    N    5      b7    2      a7    1      t7
    H    7      b8    5      a8    2      t8
    C    7      b9    5      a9    2      t9
    H    9     b10    7     a10    5     t10
    C    9     b11    7     a11    5     t11
    H   11     b12    9     a12    7     t12
    H   11     b13    9     a13    7     t13
    H   11     b14    9     a14    7     t14
    C    9     b15    7     a15    5     t15
    O   15     b16    9     a16    7     t16
    N   15     b17    9     a17    7     t17
    H   17     b18   15     a18    9     t18
    C   17     b19   15     a19    9     t19
    H   19     b20   17     a20   15     t20
    C   19     b21   17     a21   15     t21
    H   21     b22   19     a22   17     t22
    H   21     b23   19     a23   17     t23
    H   21     b24   19     a24   17     t24
    C   19     b25   17     a25   15     t25
    O   25     b26   19     a26   17     t26
    N   25     b27   19     a27   17     t27
    H   27     b28   25     a28   19     t28
    C   27     b29   25     a29   19     t29
    H   29     b30   27     a30   25     t30
    C   29     b31   27     a31   25     t31
    H   31     b32   29     a32   27     t32
    H   31     b33   29     a33   27     t33
    H   31     b34   29     a34   27     t34
    C   29     b35   27     a35   25     t35
    O   35     b36   29     a36   27     t36
    N   35     b37   29     a37   27     t37
    H   37     b38   35     a38   29     t38
    C   37     b39   35     a39   29     t39
    H   39     b40   37     a40   35     t40
    H   39     b41   37     a41   35     t41
    H   39     b42   37     a42   35     t42
Variables
b2=   1.0817
b3=   1.0834
a3= 110.1215
b4=   1.0845
a4= 108.8508
t4= 117.9872
b5=   1.5097
a5= 108.2858
t5= 116.9721
b6=   1.2079
a6= 121.1548
t6=  44.7201
b7=   1.3496
a7= 116.65
t7= 223.4033
b8=   0.995
a8= 119.0079
t8=   5.4887
b9=   1.4525
a9= 123.3075
t9= 179.201
b10=   1.0781
a10= 106.205
t10=  18.5648
b11=   1.5236
a11= 110.7959
t11= 137.2837
b12=   1.0827
a12= 111.1709
t12=  60.9477
b13=   1.0834
a13= 110.5497
t13= 180.2095
b14=   1.0839
a14= 109.5953
t14= -59.8983
b15=   1.5368
a15= 108.6274
t15= 259.6679
b16=   1.1978
a16= 120.5138
t16= -100.9564
b17=   1.3735
a17= 117.6762
t17=  69.7462
b18=   1.002
a18= 109.0825
t18= 186.192
b19=   1.4657
a19= 125.1209
t19= 410.0
b20=   1.0774
a20= 108.2626
t20= -46.6684
b21=   1.525
a21= 112.8778
t21=  75.9328
b22=   1.082
a22= 110.843
t22=  59.7924
b23=   1.085
a23= 110.5702
t23= -180.4117
b24=   1.0857
a24= 110.2034
t24= -60.7955
b25=   1.5314
a25= 105.1441
t25= 197.4239
b26=   1.2055
a26= 120.9291
t26= -87.9417
b27=   1.3431
a27= 115.7455
t27=  90.0
b28=   1.0002
a28= 120.0687
t28=  -2.2226
b29=   1.4473
a29= 121.115
t29= -172.4678
b30=   1.0824
a30= 107.9914
t30= -47.2528
b31=   1.5342
a31= 112.6729
t31=  73.0559
b32=   1.0837
a32= 110.071
t32=  60.1632
b33=   1.0859
a33= 110.6949
t33= -179.7932
b34=   1.0814
a34= 109.661
t34= -60.0847
b35=   1.5235
a35= 107.8436
t35= -166.7399
b36=   1.2039
a36= 121.1624
t36= -43.9891
b37=   1.3449
a37= 115.9556
t37= -221.0016
b38=   0.993
a38= 118.9514
t38= -10.5632
b39=   1.4482
a39= 121.6236
t39= 179.0952
b40=   1.0805
a40= 109.9625
t40= -50.2601
b41=   1.0839
a41= 111.5958
t41=  70.1219
b42=   1.0817
a42= 108.6728
t42= -169.5461
