%chk=structure.chk
NProcShared=8
#HF/6-31G* SCF=tight opt=Z-Matrix Freq

Optimization of phi 290.0

0   1
    H
    C    1      b2
    H    2      b3    1      a3
    H    2      b4    3      a4    1      t4
    C    2      b5    4      a5    1      t5
    O    5      b6    2      a6    1      t6
    N    5      b7    2      a7    1      t7
    H    7      b8    5      a8    2      t8
    C    7      b9    5      a9    2      t9
    H    9     b10    7     a10    5     t10
    C    9     b11    7     a11    5     t11
    H   11     b12    9     a12    7     t12
    H   11     b13    9     a13    7     t13
    H   11     b14    9     a14    7     t14
    C    9     b15    7     a15    5     t15
    O   15     b16    9     a16    7     t16
    N   15     b17    9     a17    7     t17
    H   17     b18   15     a18    9     t18
    C   17     b19   15     a19    9     t19
    H   19     b20   17     a20   15     t20
    C   19     b21   17     a21   15     t21
    H   21     b22   19     a22   17     t22
    H   21     b23   19     a23   17     t23
    H   21     b24   19     a24   17     t24
    C   19     b25   17     a25   15     t25
    O   25     b26   19     a26   17     t26
    N   25     b27   19     a27   17     t27
    H   27     b28   25     a28   19     t28
    C   27     b29   25     a29   19     t29
    H   29     b30   27     a30   25     t30
    C   29     b31   27     a31   25     t31
    H   31     b32   29     a32   27     t32
    H   31     b33   29     a33   27     t33
    H   31     b34   29     a34   27     t34
    C   29     b35   27     a35   25     t35
    O   35     b36   29     a36   27     t36
    N   35     b37   29     a37   27     t37
    H   37     b38   35     a38   29     t38
    C   37     b39   35     a39   29     t39
    H   39     b40   37     a40   35     t40
    H   39     b41   37     a41   35     t41
    H   39     b42   37     a42   35     t42
Variables
b2=   1.0852
b3=   1.0834
a3= 108.5722
b4=   1.0811
a4= 109.7039
t4= 117.8768
b5=   1.5129
a5= 108.7993
t5= 117.8367
b6=   1.203
a6= 121.9451
t6=  81.3124
b7=   1.3511
a7= 115.6901
t7= 262.439
b8=   0.9947
a8= 120.5915
t8=   5.228
b9=   1.443
a9= 121.7174
t9= 174.1861
b10=   1.0828
a10= 108.4589
t10= -38.7249
b11=   1.5367
a11= 111.7308
t11=  80.6892
b12=   1.0851
a12= 110.5899
t12=  62.2121
b13=   1.0847
a13= 111.8527
t13= 183.7146
b14=   1.0811
a14= 108.7642
t14= -57.1248
b15=   1.5255
a15= 108.6427
t15= 203.7059
b16=   1.1871
a16= 121.0561
t16=  -8.0732
b17=   1.4228
a17= 118.3932
t17= 170.399
b18=   1.0006
a18= 112.3638
t18=  60.6095
b19=   1.4706
a19= 117.4378
t19= 290.0
b20=   1.0851
a20= 107.7561
t20= -20.3299
b21=   1.525
a21= 114.4686
t21= 102.0751
b22=   1.0827
a22= 110.2158
t22=  59.8132
b23=   1.0843
a23= 110.4099
t23= -181.5044
b24=   1.0837
a24= 111.2645
t24= -61.4717
b25=   1.5314
a25= 105.5703
t25= 223.6223
b26=   1.2036
a26= 121.2109
t26= -89.4811
b27=   1.344
a27= 115.4557
t27=  90.0
b28=   0.9963
a28= 120.7125
t28=  -6.6907
b29=   1.4437
a29= 122.1222
t29= -173.2803
b30=   1.0822
a30= 107.8275
t30= -42.7779
b31=   1.5348
a31= 112.4239
t31=  77.6195
b32=   1.0842
a32= 110.2651
t32=  60.4443
b33=   1.0853
a33= 111.1152
t33= -179.1042
b34=   1.082
a34= 109.3688
t34= -59.2616
b35=   1.5254
a35= 107.2271
t35= -161.2897
b36=   1.2034
a36= 121.3371
t36= -27.7277
b37=   1.3453
a37= 115.7096
t37= -205.2079
b38=   0.9933
a38= 119.0324
t38=  -9.334
b39=   1.4483
a39= 121.7114
t39= 178.8835
b40=   1.0804
a40= 109.9622
t40= -49.223
b41=   1.084
a41= 111.6108
t41=  71.1946
b42=   1.0816
a42= 108.6748
t42= -168.5226
