%chk=structure.chk
NProcShared=8
#HF/6-31G* SCF=tight opt=Z-Matrix Freq

Optimization of phi 240

0   1
    H
    C    1      b2
    H    2      b3    1      a3
    H    2      b4    3      a4    1      t4
    C    2      b5    4      a5    1      t5
    O    5      b6    2      a6    1      t6
    N    5      b7    2      a7    1      t7
    H    7      b8    5      a8    2      t8
    C    7      b9    5      a9    2      t9
    H    9     b10    7     a10    5     t10
    C    9     b11    7     a11    5     t11
    H   11     b12    9     a12    7     t12
    H   11     b13    9     a13    7     t13
    H   11     b14    9     a14    7     t14
    C    9     b15    7     a15    5     t15
    O   15     b16    9     a16    7     t16
    N   15     b17    9     a17    7     t17
    H   17     b18   15     a18    9     t18
    C   17     b19   15     a19    9     t19
    H   19     b20   17     a20   15     t20
    C   19     b21   17     a21   15     t21
    H   21     b22   19     a22   17     t22
    H   21     b23   19     a23   17     t23
    H   21     b24   19     a24   17     t24
    C   19     b25   17     a25   15     t25
    O   25     b26   19     a26   17     t26
    N   25     b27   19     a27   17     t27
    H   27     b28   25     a28   19     t28
    C   27     b29   25     a29   19     t29
    H   29     b30   27     a30   25     t30
    C   29     b31   27     a31   25     t31
    H   31     b32   29     a32   27     t32
    H   31     b33   29     a33   27     t33
    H   31     b34   29     a34   27     t34
    C   29     b35   27     a35   25     t35
    O   35     b36   29     a36   27     t36
    N   35     b37   29     a37   27     t37
    H   37     b38   35     a38   29     t38
    C   37     b39   35     a39   29     t39
    H   39     b40   37     a40   35     t40
    H   39     b41   37     a41   35     t41
    H   39     b42   37     a42   35     t42
Variables
b2=   1.0854
b3=   1.0834
a3= 108.5361
b4=   1.081
a4= 109.7446
t4= 117.9518
b5=   1.513
a5= 108.828
t5= 117.9672
b6=   1.2028
a6= 121.9927
t6=  83.6053
b7=   1.3516
a7= 115.5509
t7= 264.5827
b8=   0.9955
a8= 120.3263
t8=   8.8297
b9=   1.4424
a9= 121.604
t9= 172.6556
b10=   1.085
a10= 109.0578
t10= -40.4984
b11=   1.5359
a11= 111.5899
t11=  79.5871
b12=   1.0844
a12= 110.4015
t12=  61.549
b13=   1.0853
a13= 112.166
t13= 182.6905
b14=   1.0808
a14= 108.8563
t14= -57.9539
b15=   1.5278
a15= 107.9519
t15= 204.0152
b16=   1.1959
a16= 121.5874
t16=   0.0028
b17=   1.3829
a17= 116.5984
t17= 173.6854
b18=   1.0001
a18= 112.7539
t18=  9.4216
b19=   1.4687
a19= 117.8696
t19= 240.0
b20=   1.0808
a20= 106.5161
t20= -45.577
b21=   1.5241
a21= 113.358
t21=  75.5795
b22=   1.0826
a22= 110.9043
t22=  60.1148
b23=   1.0846
a23= 110.3654
t23= -180.4919
b24=   1.0849
a24= 110.3947
t24= -61.1704
b25=   1.5288
a25= 105.8173
t25= 197.88
b26=   1.205
a26= 120.9858
t26= -88.0782
b27=   1.3415
a27= 115.6292
t27=  90.0
b28=   0.9966
a28= 120.9304
t28=  -2.4216
b29=   1.4438
a29= 122.31
t29= -175.3127
b30=   1.0824
a30= 107.9557
t30= -41.0208
b31=   1.5347
a31= 112.3236
t31=  79.3032
b32=   1.0843
a32= 110.2586
t32=  60.5335
b33=   1.0851
a33= 111.1399
t33= -179.0566
b34=   1.0821
a34= 109.3787
t34= -59.2847
b35=   1.5257
a35= 107.2884
t35= -159.5883
b36=   1.2032
a36= 121.2893
t36= -26.7091
b37=   1.345
a37= 115.6936
t37= -204.2221
b38=   0.9934
a38= 119.0404
t38=  -9.5284
b39=   1.4487
a39= 121.6875
t39= 179.0726
b40=   1.0803
a40= 109.9394
t40= -49.1789
b41=   1.0839
a41= 111.6064
t41=  71.2373
b42=   1.0816
a42= 108.6612
t42= -168.4662
