%chk=structure.chk
NProcShared=8
#HF/6-31G* SCF=tight opt=Z-Matrix Freq

Optimization of phi -170.8032

0   1
    H
    C    1      b2
    H    2      b3    1      a3
    H    2      b4    3      a4    1      t4
    C    2      b5    4      a5    1      t5
    O    5      b6    2      a6    1      t6
    N    5      b7    2      a7    1      t7
    H    7      b8    5      a8    2      t8
    C    7      b9    5      a9    2      t9
    H    9     b10    7     a10    5     t10
    C    9     b11    7     a11    5     t11
    H   11     b12    9     a12    7     t12
    H   11     b13    9     a13    7     t13
    H   11     b14    9     a14    7     t14
    C    9     b15    7     a15    5     t15
    O   15     b16    9     a16    7     t16
    N   15     b17    9     a17    7     t17
    H   17     b18   15     a18    9     t18
    C   17     b19   15     a19    9     t19
    H   19     b20   17     a20   15     t20
    C   19     b21   17     a21   15     t21
    H   21     b22   19     a22   17     t22
    H   21     b23   19     a23   17     t23
    H   21     b24   19     a24   17     t24
    C   19     b25   17     a25   15     t25
    O   25     b26   19     a26   17     t26
    N   25     b27   19     a27   17     t27
    H   27     b28   25     a28   19     t28
    C   27     b29   25     a29   19     t29
    H   29     b30   27     a30   25     t30
    C   29     b31   27     a31   25     t31
    H   31     b32   29     a32   27     t32
    H   31     b33   29     a33   27     t33
    H   31     b34   29     a34   27     t34
    C   29     b35   27     a35   25     t35
    O   35     b36   29     a36   27     t36
    N   35     b37   29     a37   27     t37
    H   37     b38   35     a38   29     t38
    C   37     b39   35     a39   29     t39
    H   39     b40   37     a40   35     t40
    H   39     b41   37     a41   35     t41
    H   39     b42   37     a42   35     t42
Variables
b2=   1.0822
b3=   1.0831
a3= 110.0853
b4=   1.0838
a4= 109.0669
t4= 118.0275
b5=   1.5088
a5= 108.2373
t5= 116.7211
b6=   1.2094
a6= 121.1339
t6=  52.9794
b7=   1.3487
a7= 116.8205
t7= 232.1928
b8=   0.9953
a8= 119.15
t8=  9.2202
b9=   1.4535
a9= 122.846
t9= 177.1052
b10=   1.0755
a10= 106.6367
t10=  23.3147
b11=   1.5255
a11= 110.4901
t11= 142.0022
b12=   1.0821
a12= 110.8798
t12=  61.4142
b13=   1.0846
a13= 110.4519
t13= 180.8202
b14=   1.0839
a14= 109.6971
t14= -59.5356
b15=   1.5334
a15= 108.3099
t15= 262.5687
b16=   1.2037
a16= 119.0183
t16= -76.4702
b17=   1.3514
a17= 119.9475
t17= 101.7457
b18=   0.9996
a18= 112.6051
t18= 178.9399
b19=   1.4582
a19= 131.5085
t19= 360.0
b20=   1.0763
a20= 108.6554
t20= -13.5059
b21=   1.5241
a21= 111.8562
t21= 108.6265
b22=   1.0819
a22= 110.7269
t22=  59.7527
b23=   1.0849
a23= 110.5974
t23= -180.4708
b24=   1.0848
a24= 109.8765
t24= -60.6662
b25=   1.5337
a25= 105.9868
t25= 230.0278
b26=   1.2056
a26= 120.8593
t26= -86.716
b27=   1.3424
a27= 115.794
t27=  90.0
b28=   1.0001
a28= 120.4697
t28=   3.6587
b29=   1.4472
a29= 121.1941
t29= -173.2109
b30=   1.0827
a30= 108.1524
t30= -45.5578
b31=   1.5343
a31= 112.4165
t31=  74.6993
b32=   1.0837
a32= 110.0779
t32=  60.2204
b33=   1.0858
a33= 110.7389
t33= -179.6482
b34=   1.0815
a34= 109.6236
t34= -59.9709
b35=   1.5235
a35= 108.0105
t35= -165.097
b36=   1.204
a36= 121.2994
t36= -41.4364
b37=   1.3446
a37= 115.8566
t37= -218.4273
b38=   0.993
a38= 119.0202
t38= -10.1159
b39=   1.4482
a39= 121.6194
t39= 178.7098
b40=   1.0807
a40= 110.0671
t40= -51.4946
b41=   1.0837
a41= 111.5274
t41=  68.927
b42=   1.0816
a42= 108.6429
t42= -170.8032
