%chk=structure.chk
NProcShared=8
#HF/6-31G* SCF=tight opt=Z-Matrix Freq

Optimization of phi 510

0   1
    H
    C    1      b2
    H    2      b3    1      a3
    H    2      b4    3      a4    1      t4
    C    2      b5    4      a5    1      t5
    O    5      b6    2      a6    1      t6
    N    5      b7    2      a7    1      t7
    H    7      b8    5      a8    2      t8
    C    7      b9    5      a9    2      t9
    H    9     b10    7     a10    5     t10
    C    9     b11    7     a11    5     t11
    H   11     b12    9     a12    7     t12
    H   11     b13    9     a13    7     t13
    H   11     b14    9     a14    7     t14
    C    9     b15    7     a15    5     t15
    O   15     b16    9     a16    7     t16
    N   15     b17    9     a17    7     t17
    H   17     b18   15     a18    9     t18
    C   17     b19   15     a19    9     t19
    H   19     b20   17     a20   15     t20
    C   19     b21   17     a21   15     t21
    H   21     b22   19     a22   17     t22
    H   21     b23   19     a23   17     t23
    H   21     b24   19     a24   17     t24
    C   19     b25   17     a25   15     t25
    O   25     b26   19     a26   17     t26
    N   25     b27   19     a27   17     t27
    H   27     b28   25     a28   19     t28
    C   27     b29   25     a29   19     t29
    H   29     b30   27     a30   25     t30
    C   29     b31   27     a31   25     t31
    H   31     b32   29     a32   27     t32
    H   31     b33   29     a33   27     t33
    H   31     b34   29     a34   27     t34
    C   29     b35   27     a35   25     t35
    O   35     b36   29     a36   27     t36
    N   35     b37   29     a37   27     t37
    H   37     b38   35     a38   29     t38
    C   37     b39   35     a39   29     t39
    H   39     b40   37     a40   35     t40
    H   39     b41   37     a41   35     t41
    H   39     b42   37     a42   35     t42
Variables
b2=   1.081
b3=   1.0841
a3= 110.1363
b4=   1.0857
a4= 108.4493
t4= 118.341
b5=   1.5105
a5= 108.657
t5= 117.7359
b6=   1.201
a6= 122.1927
t6=  31.4697
b7=   1.363
a7= 116.6241
t7= 212.043
b8=   0.9955
a8= 117.8333
t8= -11.1691
b9=   1.4557
a9= 120.4385
t9= 193.3581
b10=   1.0822
a10= 110.0864
t10=  55.6007
b11=   1.5284
a11= 109.8265
t11= 176.3606
b12=   1.085
a12= 111.2885
t12=  60.0229
b13=   1.0825
a13= 109.6769
t13= 180.0347
b14=   1.0859
a14= 110.6676
t14= -60.8246
b15=   1.531
a15= 112.5634
t15= 299.976
b16=   1.1967
a16= 119.6183
t16= -214.7457
b17=   1.3605
a17= 116.9814
t17= -36.1316
b18=   0.9953
a18= 114.4137
t18= 367.6512
b19=   1.4661
a19= 118.7693
t19= 510.0
b20=   1.0831
a20= 108.0238
t20= -31.5975
b21=   1.5228
a21= 111.9904
t21=  89.1956
b22=   1.0814
a22= 110.2602
t22=  61.3874
b23=   1.0856
a23= 110.449
t23= -178.7349
b24=   1.0814
a24= 109.2727
t24= -59.127
b25=   1.5308
a25= 106.8886
t25= 210.8817
b26=   1.203
a26= 122.0769
t26= -90.3119
b27=   1.3497
a27= 115.4399
t27=  90.0
b28=   0.9994
a28= 120.4578
t28=  -9.547
b29=   1.4477
a29= 121.0513
t29= -177.6443
b30=   1.0824
a30= 107.742
t30= -47.8779
b31=   1.5344
a31= 113.2026
t31=  72.3384
b32=   1.0841
a32= 110.2166
t32=  60.6418
b33=   1.0856
a33= 110.6645
t33= -179.5274
b34=   1.0813
a34= 109.646
t34= -59.8864
b35=   1.5236
a35= 107.6068
t35= -167.1258
b36=   1.2039
a36= 120.9551
t36= -41.602
b37=   1.3445
a37= 116.001
t37= -218.6337
b38=   0.9932
a38= 118.9123
t38= -11.1565
b39=   1.4487
a39= 121.6113
t39= 179.3631
b40=   1.0839
a40= 111.6176
t40=  70.7718
b41=   1.0816
a41= 108.6694
t41= 191.1357
b42=   1.0803
a42= 109.8913
t42= -49.5929
