%chk=structure.chk
NProcShared=8
#HF/6-31G* SCF=tight opt=Z-Matrix Freq

Optimization of phi -170.3112

0   1
    H
    C    1      b2
    H    2      b3    1      a3
    H    2      b4    3      a4    1      t4
    C    2      b5    4      a5    1      t5
    O    5      b6    2      a6    1      t6
    N    5      b7    2      a7    1      t7
    H    7      b8    5      a8    2      t8
    C    7      b9    5      a9    2      t9
    H    9     b10    7     a10    5     t10
    C    9     b11    7     a11    5     t11
    H   11     b12    9     a12    7     t12
    H   11     b13    9     a13    7     t13
    H   11     b14    9     a14    7     t14
    C    9     b15    7     a15    5     t15
    O   15     b16    9     a16    7     t16
    N   15     b17    9     a17    7     t17
    H   17     b18   15     a18    9     t18
    C   17     b19   15     a19    9     t19
    H   19     b20   17     a20   15     t20
    C   19     b21   17     a21   15     t21
    H   21     b22   19     a22   17     t22
    H   21     b23   19     a23   17     t23
    H   21     b24   19     a24   17     t24
    C   19     b25   17     a25   15     t25
    O   25     b26   19     a26   17     t26
    N   25     b27   19     a27   17     t27
    H   27     b28   25     a28   19     t28
    C   27     b29   25     a29   19     t29
    H   29     b30   27     a30   25     t30
    C   29     b31   27     a31   25     t31
    H   31     b32   29     a32   27     t32
    H   31     b33   29     a33   27     t33
    H   31     b34   29     a34   27     t34
    C   29     b35   27     a35   25     t35
    O   35     b36   29     a36   27     t36
    N   35     b37   29     a37   27     t37
    H   37     b38   35     a38   29     t38
    C   37     b39   35     a39   29     t39
    H   39     b40   37     a40   35     t40
    H   39     b41   37     a41   35     t41
    H   39     b42   37     a42   35     t42
Variables
b2=   1.0818
b3=   1.0833
a3= 110.1101
b4=   1.0844
a4= 108.8977
t4= 117.9901
b5=   1.5096
a5= 108.265
t5= 116.8997
b6=   1.2082
a6= 121.1378
t6=  46.4574
b7=   1.3494
a7= 116.6881
t7= 225.3034
b8=   0.9951
a8= 119.0553
t8=   5.783
b9=   1.4534
a9= 123.3445
t9= 178.9435
b10=   1.0772
a10= 106.3137
t10=  18.619
b11=   1.5237
a11= 110.7486
t11= 137.3807
b12=   1.0823
a12= 111.1167
t12=  61.0143
b13=   1.0838
a13= 110.5155
t13= 180.2921
b14=   1.084
a14= 109.6137
t14= -59.8993
b15=   1.5361
a15= 108.1987
t15= 259.272
b16=   1.1996
a16= 120.1469
t16= -94.9933
b17=   1.3663
a17= 118.3205
t17=  76.6208
b18=   1.0012
a18= 110.1517
t18= 183.4644
b19=   1.4628
a19= 127.2479
t19= 400.0
b20=   1.0768
a20= 108.3971
t20= -41.22
b21=   1.525
a21= 112.7008
t21=  81.3722
b22=   1.082
a22= 110.8143
t22=  59.7252
b23=   1.085
a23= 110.5996
t23= -180.4682
b24=   1.0856
a24= 110.1159
t24= -60.8182
b25=   1.5319
a25= 105.2651
t25= 202.8352
b26=   1.2055
a26= 120.9395
t26= -87.6852
b27=   1.3428
a27= 115.7174
t27=  90.0
b28=   1.0001
a28= 120.1725
t28=  -0.8202
b29=   1.4471
a29= 121.1894
t29= -172.6031
b30=   1.0825
a30= 108.0475
t30= -47.0167
b31=   1.5342
a31= 112.6106
t31=  73.2998
b32=   1.0837
a32= 110.0656
t32=  60.174
b33=   1.0858
a33= 110.7067
t33= -179.7622
b34=   1.0814
a34= 109.6528
t34= -60.0557
b35=   1.5235
a35= 107.8649
t35= -166.5137
b36=   1.204
a36= 121.2021
t36= -43.1661
b37=   1.3448
a37= 115.934
t37= -220.173
b38=   0.993
a38= 118.9792
t38= -10.406
b39=   1.4482
a39= 121.6105
t39= 178.9773
b40=   1.0806
a40= 110.0157
t40= -51.0122
b41=   1.0838
a41= 111.5617
t41=  69.384
b42=   1.0816
a42= 108.6576
t42= -170.3112
