%chk=structure.chk
NProcShared=8
#HF/6-31G* SCF=tight opt=Z-Matrix Freq

Optimization of phi 210

0   1
    H
    C    1      b2
    H    2      b3    1      a3
    H    2      b4    3      a4    1      t4
    C    2      b5    4      a5    1      t5
    O    5      b6    2      a6    1      t6
    N    5      b7    2      a7    1      t7
    H    7      b8    5      a8    2      t8
    C    7      b9    5      a9    2      t9
    H    9     b10    7     a10    5     t10
    C    9     b11    7     a11    5     t11
    H   11     b12    9     a12    7     t12
    H   11     b13    9     a13    7     t13
    H   11     b14    9     a14    7     t14
    C    9     b15    7     a15    5     t15
    O   15     b16    9     a16    7     t16
    N   15     b17    9     a17    7     t17
    H   17     b18   15     a18    9     t18
    C   17     b19   15     a19    9     t19
    H   19     b20   17     a20   15     t20
    C   19     b21   17     a21   15     t21
    H   21     b22   19     a22   17     t22
    H   21     b23   19     a23   17     t23
    H   21     b24   19     a24   17     t24
    C   19     b25   17     a25   15     t25
    O   25     b26   19     a26   17     t26
    N   25     b27   19     a27   17     t27
    H   27     b28   25     a28   19     t28
    C   27     b29   25     a29   19     t29
    H   29     b30   27     a30   25     t30
    C   29     b31   27     a31   25     t31
    H   31     b32   29     a32   27     t32
    H   31     b33   29     a33   27     t33
    H   31     b34   29     a34   27     t34
    C   29     b35   27     a35   25     t35
    O   35     b36   29     a36   27     t36
    N   35     b37   29     a37   27     t37
    H   37     b38   35     a38   29     t38
    C   37     b39   35     a39   29     t39
    H   39     b40   37     a40   35     t40
    H   39     b41   37     a41   35     t41
    H   39     b42   37     a42   35     t42
Variables
b2=   1.082
b3=   1.0831
a3= 109.6075
b4=   1.0845
a4= 108.766
t4= 117.6433
b5=   1.513
a5= 108.5111
t5= 117.5179
b6=   1.2035
a6= 121.6801
t6=  45.0635
b7=   1.3499
a7= 115.8787
t7= 223.6785
b8=   0.9953
a8= 120.8605
t8=  9.6037
b9=   1.4418
a9= 121.6628
t9= 176.9171
b10=   1.0842
a10= 108.6865
t10= -40.2002
b11=   1.5353
a11= 111.9106
t11=  80.0001
b12=   1.0845
a12= 110.3765
t12=  61.3574
b13=   1.0853
a13= 111.8965
t13= 182.1569
b14=   1.0811
a14= 108.9637
t14= -58.2536
b15=   1.5272
a15= 107.6667
t15= 203.4316
b16=   1.2036
a16= 121.8803
t16=  -5.2892
b17=   1.3551
a17= 116.043
t17= 171.1402
b18=   0.9958
a18= 117.2361
t18=   0.0916
b19=   1.4628
a19= 120.6793
t19= 210.0
b20=   1.081
a20= 107.4612
t20=  15.7669
b21=   1.522
a21= 110.3282
t21= 135.9796
b22=   1.0826
a22= 110.7664
t22=  61.9693
b23=   1.0833
a23= 110.2318
t23= -179.0364
b24=   1.085
a24= 110.2196
t24= -59.4442
b25=   1.5323
a25= 108.56
t25= 257.7899
b26=   1.2041
a26= 121.5162
t26= -90.3667
b27=   1.3439
a27= 114.8767
t27=  90.0
b28=   0.9988
a28= 119.8559
t28= -10.0936
b29=   1.444
a29= 121.6935
t29= -175.0427
b30=   1.0818
a30= 107.5718
t30= -39.8968
b31=   1.5346
a31= 112.446
t31=  80.2214
b32=   1.0843
a32= 110.2016
t32=  60.2993
b33=   1.0853
a33= 111.109
t33= -179.3587
b34=   1.0825
a34= 109.4018
t34= -59.5605
b35=   1.5249
a35= 107.6494
t35= -158.6657
b36=   1.2022
a36= 121.3886
t36= -31.5796
b37=   1.347
a37= 115.6059
t37= -208.7638
b38=   0.9933
a38= 118.9617
t38= -10.7554
b39=   1.448
a39= 121.6435
t39= 179.2285
b40=   1.0802
a40= 109.8464
t40= -48.3127
b41=   1.0843
a41= 111.7101
t41=  72.0562
b42=   1.0818
a42= 108.7216
t42= -167.5707
