%chk=structure.chk
NProcShared=8
#P hf/6-31G* Opt=(Tight,CalcFC) Freq SCF(Conver=6) Test

Optimization of phi 510

0   1
    H
    C    1      b2
    H    2      b3    1      a3
    H    2      b4    3      a4    1      t4
    C    2      b5    4      a5    1      t5
    O    5      b6    2      a6    1      t6
    N    5      b7    2      a7    1      t7
    H    7      b8    5      a8    2      t8
    C    7      b9    5      a9    2      t9
    H    9     b10    7     a10    5     t10
    C    9     b11    7     a11    5     t11
    H   11     b12    9     a12    7     t12
    H   11     b13    9     a13    7     t13
    H   11     b14    9     a14    7     t14
    C    9     b15    7     a15    5     t15
    O   15     b16    9     a16    7     t16
    N   15     b17    9     a17    7     t17
    H   17     b18   15     a18    9     t18
    C   17     b19   15     a19    9     t19
    H   19     b20   17     a20   15     t20
    C   19     b21   17     a21   15     t21
    H   21     b22   19     a22   17     t22
    H   21     b23   19     a23   17     t23
    H   21     b24   19     a24   17     t24
    C   19     b25   17     a25   15     t25
    O   25     b26   19     a26   17     t26
    N   25     b27   19     a27   17     t27
    H   27     b28   25     a28   19     t28
    C   27     b29   25     a29   19     t29
    H   29     b30   27     a30   25     t30
    C   29     b31   27     a31   25     t31
    H   31     b32   29     a32   27     t32
    H   31     b33   29     a33   27     t33
    H   31     b34   29     a34   27     t34
    C   29     b35   27     a35   25     t35
    O   35     b36   29     a36   27     t36
    N   35     b37   29     a37   27     t37
    H   37     b38   35     a38   29     t38
    C   37     b39   35     a39   29     t39
    H   39     b40   37     a40   35     t40
    H   39     b41   37     a41   35     t41
    H   39     b42   37     a42   35     t42
Variables
b2=   1.0809
b3=   1.0835
a3= 110.1472
b4=   1.0851
a4= 108.7326
t4= 118.4205
b5=   1.5084
a5= 108.1704
t5= 117.2408
b6=   1.2067
a6= 122.056
t6=  44.8814
b7=   1.3569
a7= 116.9221
t7= 225.2362
b8=   0.9951
a8= 117.9217
t8=  -6.9508
b9=   1.4537
a9= 121.5151
t9= 193.5612
b10=   1.0811
a10= 107.5819
t10=  23.4308
b11=   1.5281
a11= 110.1673
t11= 142.6155
b12=   1.0868
a12= 111.1092
t12=  60.1103
b13=   1.08
a13= 109.7787
t13= 179.6603
b14=   1.0845
a14= 110.2828
t14= -60.2501
b15=   1.5328
a15= 115.518
t15= 268.7772
b16=   1.2008
a16= 118.0297
t16= -180.3723
b17=   1.3542
a17= 118.7904
t17=   5.3683
b18=   0.9944
a18= 117.3289
t18= 349.5088
b19=   1.4548
a19= 121.8408
t19= 510.0
b20=   1.0801
a20= 106.4262
t20=  -0.481
b21=   1.532
a21= 111.1524
t21= 117.4208
b22=   1.0863
a22= 110.7723
t22=  61.7432
b23=   1.0806
a23= 110.599
t23= -177.9003
b24=   1.0832
a24= 109.1395
t24= -57.4738
b25=   1.5323
a25= 115.0539
t25= 242.1493
b26=   1.2027
a26= 118.5014
t26= 182.5369
b27=   1.3511
a27= 118.6998
t27=   0.0
b28=   0.9962
a28= 118.6752
t28=  24.0764
b29=   1.4591
a29= 120.2191
t29= 180.5685
b30=   1.0841
a30= 108.8573
t30= -47.9374
b31=   1.5282
a31= 111.9706
t31=  72.6507
b32=   1.0819
a32= 109.8677
t32=  60.693
b33=   1.0859
a33= 110.0577
t33= 180.1396
b34=   1.0804
a34= 110.0465
t34= -60.3192
b35=   1.529
a35= 107.388
t35= 192.6192
b36=   1.2041
a36= 121.0785
t36= -68.5627
b37=   1.3441
a37= 115.9082
t37= 112.9858
b38=   0.9934
a38= 118.2051
t38= -12.0488
b39=   1.4482
a39= 121.1294
t39= 186.4995
b40=   1.0818
a40= 108.6851
t40= -171.6402
b41=   1.0803
a41= 109.707
t41= -52.6188
b42=   1.0837
a42= 111.2544
t42= -292.1085
