%chk=structure.chk
NProcShared=8
#HF/6-31G* SCF=tight opt=Z-Matrix Freq

Optimization of phi -167.7599

0   1
    H
    C    1      b2
    H    2      b3    1      a3
    H    2      b4    3      a4    1      t4
    C    2      b5    4      a5    1      t5
    O    5      b6    2      a6    1      t6
    N    5      b7    2      a7    1      t7
    H    7      b8    5      a8    2      t8
    C    7      b9    5      a9    2      t9
    H    9     b10    7     a10    5     t10
    C    9     b11    7     a11    5     t11
    H   11     b12    9     a12    7     t12
    H   11     b13    9     a13    7     t13
    H   11     b14    9     a14    7     t14
    C    9     b15    7     a15    5     t15
    O   15     b16    9     a16    7     t16
    N   15     b17    9     a17    7     t17
    H   17     b18   15     a18    9     t18
    C   17     b19   15     a19    9     t19
    H   19     b20   17     a20   15     t20
    C   19     b21   17     a21   15     t21
    H   21     b22   19     a22   17     t22
    H   21     b23   19     a23   17     t23
    H   21     b24   19     a24   17     t24
    C   19     b25   17     a25   15     t25
    O   25     b26   19     a26   17     t26
    N   25     b27   19     a27   17     t27
    H   27     b28   25     a28   19     t28
    C   27     b29   25     a29   19     t29
    H   29     b30   27     a30   25     t30
    C   29     b31   27     a31   25     t31
    H   31     b32   29     a32   27     t32
    H   31     b33   29     a33   27     t33
    H   31     b34   29     a34   27     t34
    C   29     b35   27     a35   25     t35
    O   35     b36   29     a36   27     t36
    N   35     b37   29     a37   27     t37
    H   37     b38   35     a38   29     t38
    C   37     b39   35     a39   29     t39
    H   39     b40   37     a40   35     t40
    H   39     b41   37     a41   35     t41
    H   39     b42   37     a42   35     t42
Variables
b2=   1.0855
b3=   1.0834
a3= 108.4625
b4=   1.0808
a4= 109.789
t4= 118.044
b5=   1.5128
a5= 108.8639
t5= 118.1087
b6=   1.2027
a6= 122.1063
t6=  86.1148
b7=   1.3524
a7= 115.4893
t7= 267.0482
b8=   0.9958
a8= 120.1533
t8=  10.0258
b9=   1.4423
a9= 121.4127
t9= 172.0038
b10=   1.0853
a10= 109.0374
t10= -40.3353
b11=   1.5352
a11= 111.6185
t11=  79.8343
b12=   1.0843
a12= 110.4192
t12=  61.7666
b13=   1.0855
a13= 112.1639
t13= 182.8695
b14=   1.0807
a14= 108.8817
t14= -57.7754
b15=   1.5275
a15= 107.9054
t15= 204.4558
b16=   1.2004
a16= 121.598
t16=   2.1537
b17=   1.3677
a17= 116.6363
t17= 174.8959
b18=   0.9966
a18= 115.028
t18=   8.1443
b19=   1.4693
a19= 118.8828
t19= 230.0
b20=   1.0815
a20= 107.7797
t20=   6.4069
b21=   1.5217
a21= 110.616
t21= 126.9621
b22=   1.0825
a22= 110.6831
t22=  61.5957
b23=   1.0834
a23= 110.248
t23= -179.4336
b24=   1.0853
a24= 110.3253
t24= -59.8186
b25=   1.5314
a25= 108.1267
t25= 248.7113
b26=   1.2037
a26= 121.5552
t26= -90.5488
b27=   1.3444
a27= 114.8236
t27=  90.0
b28=   0.9986
a28= 119.8399
t28= -10.7023
b29=   1.4441
a29= 121.6882
t29= -174.3889
b30=   1.0818
a30= 107.5599
t30= -40.6175
b31=   1.5346
a31= 112.4726
t31=  79.5457
b32=   1.0843
a32= 110.2136
t32=  60.3107
b33=   1.0854
a33= 111.0955
t33= -179.3347
b34=   1.0824
a34= 109.4075
t34= -59.5187
b35=   1.5249
a35= 107.5859
t35= -159.341
b36=   1.2024
a36= 121.3818
t36= -31.3775
b37=   1.3468
a37= 115.6252
t37= -208.5912
b38=   0.9933
a38= 118.9793
t38= -10.5116
b39=   1.448
a39= 121.6537
t39= 179.1171
b40=   1.0803
a40= 109.87
t40= -48.4922
b41=   1.0842
a41= 111.6959
t41=  71.8831
b42=   1.0818
a42= 108.7163
t42= -167.7599
