%chk=structure.chk
NProcShared=8
#HF/6-31G* SCF=tight opt=Z-Matrix Freq

Optimization of phi -169.0458

0   1
    H
    C    1      b2
    H    2      b3    1      a3
    H    2      b4    3      a4    1      t4
    C    2      b5    4      a5    1      t5
    O    5      b6    2      a6    1      t6
    N    5      b7    2      a7    1      t7
    H    7      b8    5      a8    2      t8
    C    7      b9    5      a9    2      t9
    H    9     b10    7     a10    5     t10
    C    9     b11    7     a11    5     t11
    H   11     b12    9     a12    7     t12
    H   11     b13    9     a13    7     t13
    H   11     b14    9     a14    7     t14
    C    9     b15    7     a15    5     t15
    O   15     b16    9     a16    7     t16
    N   15     b17    9     a17    7     t17
    H   17     b18   15     a18    9     t18
    C   17     b19   15     a19    9     t19
    H   19     b20   17     a20   15     t20
    C   19     b21   17     a21   15     t21
    H   21     b22   19     a22   17     t22
    H   21     b23   19     a23   17     t23
    H   21     b24   19     a24   17     t24
    C   19     b25   17     a25   15     t25
    O   25     b26   19     a26   17     t26
    N   25     b27   19     a27   17     t27
    H   27     b28   25     a28   19     t28
    C   27     b29   25     a29   19     t29
    H   29     b30   27     a30   25     t30
    C   29     b31   27     a31   25     t31
    H   31     b32   29     a32   27     t32
    H   31     b33   29     a33   27     t33
    H   31     b34   29     a34   27     t34
    C   29     b35   27     a35   25     t35
    O   35     b36   29     a36   27     t36
    N   35     b37   29     a37   27     t37
    H   37     b38   35     a38   29     t38
    C   37     b39   35     a39   29     t39
    H   39     b40   37     a40   35     t40
    H   39     b41   37     a41   35     t41
    H   39     b42   37     a42   35     t42
Variables
b2=   1.0816
b3=   1.0832
a3= 109.6795
b4=   1.0847
a4= 108.6269
t4= 117.7378
b5=   1.5128
a5= 108.5347
t5= 117.6507
b6=   1.2031
a6= 121.7785
t6=  41.2317
b7=   1.3512
a7= 115.8283
t7= 219.542
b8=   0.995
a8= 120.4807
t8=  11.7481
b9=   1.4421
a9= 121.5117
t9= 176.469
b10=   1.0849
a10= 108.9316
t10= -40.9419
b11=   1.5362
a11= 111.566
t11=  78.9907
b12=   1.0844
a12= 110.4944
t12=  62.1204
b13=   1.0856
a13= 112.2467
t13= 183.3957
b14=   1.0807
a14= 108.8164
t14= -57.4419
b15=   1.5276
a15= 108.0437
t15= 203.6439
b16=   1.1932
a16= 121.5053
t16=   0.2285
b17=   1.3922
a17= 116.9407
t17= 172.7862
b18=   0.9994
a18= 111.6826
t18=  18.2309
b19=   1.4701
a19= 117.3873
t19= 250.0
b20=   1.0822
a20= 107.4783
t20= -19.232
b21=   1.5287
a21= 112.3151
t21= 101.1804
b22=   1.0868
a22= 110.8936
t22=  59.5585
b23=   1.0805
a23= 109.8184
t23= -181.0079
b24=   1.0846
a24= 110.712
t24= -60.8049
b25=   1.5303
a25= 112.6869
t25= 225.9663
b26=   1.2062
a26= 119.3551
t26= 180.6806
b27=   1.3382
a27= 116.983
t27=   0.0
b28=   0.9965
a28= 119.8635
t28=   7.2107
b29=   1.4432
a29= 121.7503
t29= 176.8778
b30=   1.0834
a30= 108.4799
t30= -37.6646
b31=   1.5344
a31= 111.9212
t31=  82.4457
b32=   1.0845
a32= 110.2307
t32=  60.9316
b33=   1.0851
a33= 111.2245
t33= 181.3812
b34=   1.082
a34= 109.2501
t34= -58.8677
b35=   1.5258
a35= 107.559
t35= 203.6018
b36=   1.2032
a36= 121.5577
t36= -24.3254
b37=   1.3457
a37= 115.5317
t37= 158.0285
b38=   0.9934
a38= 118.9639
t38= -10.16
b39=   1.4484
a39= 121.6345
t39= 179.8318
b40=   1.0804
a40= 109.9307
t40= -49.7973
b41=   1.084
a41= 111.6406
t41=  70.625
b42=   1.0816
a42= 108.6588
t42= -169.0458
