%chk=structure.chk
NProcShared=8
#HF/6-31G* SCF=tight opt=Z-Matrix Freq

Optimization of phi 200

0   1
    H
    C    1      b2
    H    2      b3    1      a3
    H    2      b4    3      a4    1      t4
    C    2      b5    4      a5    1      t5
    O    5      b6    2      a6    1      t6
    N    5      b7    2      a7    1      t7
    H    7      b8    5      a8    2      t8
    C    7      b9    5      a9    2      t9
    H    9     b10    7     a10    5     t10
    C    9     b11    7     a11    5     t11
    H   11     b12    9     a12    7     t12
    H   11     b13    9     a13    7     t13
    H   11     b14    9     a14    7     t14
    C    9     b15    7     a15    5     t15
    O   15     b16    9     a16    7     t16
    N   15     b17    9     a17    7     t17
    H   17     b18   15     a18    9     t18
    C   17     b19   15     a19    9     t19
    H   19     b20   17     a20   15     t20
    C   19     b21   17     a21   15     t21
    H   21     b22   19     a22   17     t22
    H   21     b23   19     a23   17     t23
    H   21     b24   19     a24   17     t24
    C   19     b25   17     a25   15     t25
    O   25     b26   19     a26   17     t26
    N   25     b27   19     a27   17     t27
    H   27     b28   25     a28   19     t28
    C   27     b29   25     a29   19     t29
    H   29     b30   27     a30   25     t30
    C   29     b31   27     a31   25     t31
    H   31     b32   29     a32   27     t32
    H   31     b33   29     a33   27     t33
    H   31     b34   29     a34   27     t34
    C   29     b35   27     a35   25     t35
    O   35     b36   29     a36   27     t36
    N   35     b37   29     a37   27     t37
    H   37     b38   35     a38   29     t38
    C   37     b39   35     a39   29     t39
    H   39     b40   37     a40   35     t40
    H   39     b41   37     a41   35     t41
    H   39     b42   37     a42   35     t42
Variables
b2=   1.0819
b3=   1.0831
a3= 109.6206
b4=   1.0846
a4= 108.7493
t4= 117.659
b5=   1.513
a5= 108.5285
t5= 117.5409
b6=   1.2036
a6= 121.6916
t6=  43.9661
b7=   1.3493
a7= 115.8558
t7= 222.6516
b8=   0.9952
a8= 121.1282
t8=   7.2587
b9=   1.4416
a9= 121.8326
t9= 178.0502
b10=   1.0835
a10= 108.5241
t10= -39.6278
b11=   1.5353
a11= 112.0385
t11=  80.583
b12=   1.0846
a12= 110.3581
t12=  61.1687
b13=   1.0852
a13= 111.7267
t13= 181.8738
b14=   1.0814
a14= 108.9986
t14= -58.4506
b15=   1.5268
a15= 107.5773
t15= 203.2628
b16=   1.2048
a16= 121.8689
t16= -11.1467
b17=   1.3504
a17= 115.8447
t17= 167.1123
b18=   0.9953
a18= 118.3615
t18=  -1.4191
b19=   1.4597
a19= 121.5706
t19= 200.0
b20=   1.0807
a20= 107.2257
t20=  19.9286
b21=   1.5221
a21= 110.3036
t21= 139.9451
b22=   1.0826
a22= 110.8069
t22=  62.2252
b23=   1.0834
a23= 110.2441
t23= -178.7678
b24=   1.0848
a24= 110.1554
t24= -59.1494
b25=   1.5325
a25= 108.7051
t25= 261.8767
b26=   1.2043
a26= 121.4934
t26= -90.1078
b27=   1.3436
a27= 114.9216
t27=  90.0
b28=   0.9988
a28= 119.9487
t28=  -9.3185
b29=   1.444
a29= 121.7295
t29= -175.3075
b30=   1.0818
a30= 107.5901
t30= -39.5374
b31=   1.5346
a31= 112.4206
t31=  80.5658
b32=   1.0843
a32= 110.2
t32=  60.3116
b33=   1.0853
a33= 111.1223
t33= -179.348
b34=   1.0825
a34= 109.3971
t34= -59.5593
b35=   1.5249
a35= 107.6623
t35= -158.314
b36=   1.2022
a36= 121.3925
t36= -31.2838
b37=   1.347
a37= 115.5982
t37= -208.4712
b38=   0.9933
a38= 118.9537
t38= -10.842
b39=   1.4481
a39= 121.6376
t39= 179.2921
b40=   1.0802
a40= 109.8403
t40= -48.2947
b41=   1.0843
a41= 111.712
t41=  72.0732
b42=   1.0818
a42= 108.7226
t42= -167.5491
