%chk=structure.chk
NProcShared=8
#HF/6-31G* SCF=tight opt=Z-Matrix Freq

Optimization of phi -165.9471

0   1
    H
    C    1      b2
    H    2      b3    1      a3
    H    2      b4    3      a4    1      t4
    C    2      b5    4      a5    1      t5
    O    5      b6    2      a6    1      t6
    N    5      b7    2      a7    1      t7
    H    7      b8    5      a8    2      t8
    C    7      b9    5      a9    2      t9
    H    9     b10    7     a10    5     t10
    C    9     b11    7     a11    5     t11
    H   11     b12    9     a12    7     t12
    H   11     b13    9     a13    7     t13
    H   11     b14    9     a14    7     t14
    C    9     b15    7     a15    5     t15
    O   15     b16    9     a16    7     t16
    N   15     b17    9     a17    7     t17
    H   17     b18   15     a18    9     t18
    C   17     b19   15     a19    9     t19
    H   19     b20   17     a20   15     t20
    C   19     b21   17     a21   15     t21
    H   21     b22   19     a22   17     t22
    H   21     b23   19     a23   17     t23
    H   21     b24   19     a24   17     t24
    C   19     b25   17     a25   15     t25
    O   25     b26   19     a26   17     t26
    N   25     b27   19     a27   17     t27
    H   27     b28   25     a28   19     t28
    C   27     b29   25     a29   19     t29
    H   29     b30   27     a30   25     t30
    C   29     b31   27     a31   25     t31
    H   31     b32   29     a32   27     t32
    H   31     b33   29     a33   27     t33
    H   31     b34   29     a34   27     t34
    C   29     b35   27     a35   25     t35
    O   35     b36   29     a36   27     t36
    N   35     b37   29     a37   27     t37
    H   37     b38   35     a38   29     t38
    C   37     b39   35     a39   29     t39
    H   39     b40   37     a40   35     t40
    H   39     b41   37     a41   35     t41
    H   39     b42   37     a42   35     t42
Variables
b2=   1.0838
b3=   1.0836
a3= 109.0199
b4=   1.0816
a4= 109.4642
t4= 118.7012
b5=   1.5108
a5= 108.827
t5= 116.9588
b6=   1.2032
a6= 122.0289
t6=  79.7072
b7=   1.3558
a7= 115.2991
t7= 261.3371
b8=   0.9952
a8= 119.4408
t8=  -6.9037
b9=   1.4493
a9= 123.1425
t9= 179.0732
b10=   1.0778
a10= 106.2522
t10= -19.9659
b11=   1.5258
a11= 112.4873
t11= 100.4481
b12=   1.0828
a12= 110.6691
t12=  60.7913
b13=   1.0862
a13= 110.9243
t13= 180.8255
b14=   1.0834
a14= 109.5434
t14= -59.6268
b15=   1.5302
a15= 104.9783
t15= 222.259
b16=   1.1964
a16= 120.314
t16= -72.8137
b17=   1.3806
a17= 117.1394
t17=  96.3208
b18=   1.001
a18= 108.3955
t18= 191.8462
b19=   1.4665
a19= 121.6182
t19= 420.0
b20=   1.0837
a20= 109.6941
t20=   0.6802
b21=   1.5287
a21= 110.7295
t21= 119.8923
b22=   1.0862
a22= 110.6771
t22=  59.5642
b23=   1.0804
a23= 109.8166
t23= -180.9222
b24=   1.0845
a24= 110.3021
t24= -60.5398
b25=   1.5316
a25= 113.3955
t25= 244.0794
b26=   1.2059
a26= 119.2458
t26= 178.7756
b27=   1.3369
a27= 116.7845
t27=   0.0
b28=   0.9956
a28= 119.9476
t28=  -1.0749
b29=   1.4444
a29= 122.2056
t29= 174.4301
b30=   1.0817
a30= 107.8055
t30= -33.9804
b31=   1.5329
a31= 112.284
t31=  86.1848
b32=   1.084
a32= 110.2344
t32=  60.2695
b33=   1.0853
a33= 110.8992
t33= 180.6015
b34=   1.0826
a34= 109.3614
t34= -59.6734
b35=   1.5252
a35= 107.3008
t35= 207.0315
b36=   1.206
a36= 120.7527
t36= -37.1283
b37=   1.3439
a37= 115.6129
t37= 146.4769
b38=   0.9941
a38= 117.5731
t38= -17.4832
b39=   1.4486
a39= 121.4569
t39= 184.5735
b40=   1.0796
a40= 109.4086
t40= -47.1124
b41=   1.0836
a41= 111.2988
t41=  73.5305
b42=   1.082
a42= 108.75
t42= -165.9471
