%chk=structure.chk
NProcShared=8
#P hf/6-31G* Opt=(Tight,CalcFC) Freq SCF(Conver=6) Test

Optimization of phi 400

0   1
    H
    C    1      b2
    H    2      b3    1      a3
    H    2      b4    3      a4    1      t4
    C    2      b5    4      a5    1      t5
    O    5      b6    2      a6    1      t6
    N    5      b7    2      a7    1      t7
    H    7      b8    5      a8    2      t8
    C    7      b9    5      a9    2      t9
    H    9     b10    7     a10    5     t10
    C    9     b11    7     a11    5     t11
    H   11     b12    9     a12    7     t12
    H   11     b13    9     a13    7     t13
    H   11     b14    9     a14    7     t14
    C    9     b15    7     a15    5     t15
    O   15     b16    9     a16    7     t16
    N   15     b17    9     a17    7     t17
    H   17     b18   15     a18    9     t18
    C   17     b19   15     a19    9     t19
    H   19     b20   17     a20   15     t20
    C   19     b21   17     a21   15     t21
    H   21     b22   19     a22   17     t22
    H   21     b23   19     a23   17     t23
    H   21     b24   19     a24   17     t24
    C   19     b25   17     a25   15     t25
    O   25     b26   19     a26   17     t26
    N   25     b27   19     a27   17     t27
    H   27     b28   25     a28   19     t28
    C   27     b29   25     a29   19     t29
    H   29     b30   27     a30   25     t30
    C   29     b31   27     a31   25     t31
    H   31     b32   29     a32   27     t32
    H   31     b33   29     a33   27     t33
    H   31     b34   29     a34   27     t34
    C   29     b35   27     a35   25     t35
    O   35     b36   29     a36   27     t36
    N   35     b37   29     a37   27     t37
    H   37     b38   35     a38   29     t38
    C   37     b39   35     a39   29     t39
    H   39     b40   37     a40   35     t40
    H   39     b41   37     a41   35     t41
    H   39     b42   37     a42   35     t42
Variables
b2=   1.0843
b3=   1.0836
a3= 108.8719
b4=   1.0814
a4= 109.5203
t4= 118.737
b5=   1.5112
a5= 108.9318
t5= 117.1756
b6=   1.2041
a6= 122.038
t6=  83.0202
b7=   1.3528
a7= 115.1317
t7= 264.4127
b8=   0.9952
a8= 119.9221
t8=  -1.6
b9=   1.4479
a9= 123.287
t9= 175.0456
b10=   1.0769
a10= 106.5803
t10= -16.6395
b11=   1.5289
a11= 112.1786
t11= 103.6384
b12=   1.0831
a12= 110.4447
t12=  60.2888
b13=   1.0867
a13= 111.1853
t13= 180.5152
b14=   1.0832
a14= 109.4752
t14= -59.8522
b15=   1.5296
a15= 105.5776
t15= 224.5416
b16=   1.1997
a16= 119.7132
t16= -57.4606
b17=   1.3673
a17= 118.551
t17= 115.2984
b18=   0.9997
a18= 110.3027
t18= 183.1906
b19=   1.4601
a19= 125.1622
t19= 400.0
b20=   1.0831
a20= 109.9618
t20=  13.7835
b21=   1.5292
a21= 109.9904
t21= 132.644
b22=   1.0861
a22= 110.7001
t22=  59.5096
b23=   1.0802
a23= 109.7628
t23= -180.9542
b24=   1.0844
a24= 110.2878
t24= -60.6384
b25=   1.5324
a25= 114.0891
t25= 256.3798
b26=   1.2056
a26= 119.001
t26= 178.5652
b27=   1.3373
a27= 117.1139
t27=   0.0
b28=   0.9954
a28= 120.3937
t28=  -1.7937
b29=   1.4443
a29= 122.1288
t29= 173.7012
b30=   1.0816
a30= 107.7243
t30= -32.7791
b31=   1.5331
a31= 112.2247
t31=  87.3557
b32=   1.0843
a32= 110.2855
t32=  60.4071
b33=   1.085
a33= 110.9637
t33= 180.7666
b34=   1.0826
a34= 109.3395
t34= -59.4717
b35=   1.5256
a35= 107.4151
t35= 208.4224
b36=   1.2057
a36= 120.8944
t36= -33.4997
b37=   1.3444
a37= 115.3858
t37= 150.2707
b38=   0.9943
a38= 117.469
t38= -18.0616
b39=   1.4484
a39= 121.5489
t39= 184.4366
b40=   1.0795
a40= 109.3312
t40= -45.4377
b41=   1.0836
a41= 111.3375
t41=  75.1987
b42=   1.0821
a42= 108.7942
t42= -164.263
