%chk=structure.chk
NProcShared=8
#HF/6-31G* SCF=tight opt=Z-Matrix Freq

Optimization of phi -168.1346

0   1
    H
    C    1      b2
    H    2      b3    1      a3
    H    2      b4    3      a4    1      t4
    C    2      b5    4      a5    1      t5
    O    5      b6    2      a6    1      t6
    N    5      b7    2      a7    1      t7
    H    7      b8    5      a8    2      t8
    C    7      b9    5      a9    2      t9
    H    9     b10    7     a10    5     t10
    C    9     b11    7     a11    5     t11
    H   11     b12    9     a12    7     t12
    H   11     b13    9     a13    7     t13
    H   11     b14    9     a14    7     t14
    C    9     b15    7     a15    5     t15
    O   15     b16    9     a16    7     t16
    N   15     b17    9     a17    7     t17
    H   17     b18   15     a18    9     t18
    C   17     b19   15     a19    9     t19
    H   19     b20   17     a20   15     t20
    C   19     b21   17     a21   15     t21
    H   21     b22   19     a22   17     t22
    H   21     b23   19     a23   17     t23
    H   21     b24   19     a24   17     t24
    C   19     b25   17     a25   15     t25
    O   25     b26   19     a26   17     t26
    N   25     b27   19     a27   17     t27
    H   27     b28   25     a28   19     t28
    C   27     b29   25     a29   19     t29
    H   29     b30   27     a30   25     t30
    C   29     b31   27     a31   25     t31
    H   31     b32   29     a32   27     t32
    H   31     b33   29     a33   27     t33
    H   31     b34   29     a34   27     t34
    C   29     b35   27     a35   25     t35
    O   35     b36   29     a36   27     t36
    N   35     b37   29     a37   27     t37
    H   37     b38   35     a38   29     t38
    C   37     b39   35     a39   29     t39
    H   39     b40   37     a40   35     t40
    H   39     b41   37     a41   35     t41
    H   39     b42   37     a42   35     t42
Variables
b2=   1.0855
b3=   1.0834
a3= 108.5016
b4=   1.0809
a4= 109.7553
t4= 117.9839
b5=   1.5129
a5= 108.8408
t5= 118.0204
b6=   1.2028
a6= 122.0537
t6=  84.6607
b7=   1.3523
a7= 115.5754
t7= 265.6758
b8=   0.9951
a8= 120.1765
t8=   8.471
b9=   1.4432
a9= 121.508
t9= 172.719
b10=   1.084
a10= 108.7003
t10= -39.6369
b11=   1.5358
a11= 111.6082
t11=  79.8306
b12=   1.085
a12= 110.676
t12=  63.1747
b13=   1.0849
a13= 111.9501
t13= 184.7961
b14=   1.0807
a14= 108.7646
t14= -56.2262
b15=   1.5269
a15= 108.4748
t15= 204.2427
b16=   1.1887
a16= 121.0648
t16=  -0.4356
b17=   1.4171
a17= 118.4043
t17= 173.8396
b18=   1.0006
a18= 111.8045
t18=  46.4788
b19=   1.4757
a19= 116.2405
t19= 280.0
b20=   1.0844
a20= 107.7709
t20= -21.2023
b21=   1.5243
a21= 114.0217
t21= 101.1367
b22=   1.0826
a22= 110.2976
t22=  60.286
b23=   1.0842
a23= 110.2835
t23= -181.0614
b24=   1.0838
a24= 111.2903
t24= -61.1422
b25=   1.531
a25= 105.7065
t25= 222.6412
b26=   1.2035
a26= 121.2571
t26= -89.6882
b27=   1.344
a27= 115.3333
t27=  90.0
b28=   0.9967
a28= 120.5349
t28=  -7.6842
b29=   1.4439
a29= 122.0263
t29= -173.294
b30=   1.0821
a30= 107.761
t30= -42.4842
b31=   1.5347
a31= 112.4395
t31=  77.8749
b32=   1.0842
a32= 110.2572
t32=  60.4356
b33=   1.0853
a33= 111.1052
t33= -179.1361
b34=   1.082
a34= 109.3841
t34= -59.2928
b35=   1.5253
a35= 107.2816
t35= -161.0279
b36=   1.2032
a36= 121.3343
t36= -28.3766
b37=   1.3456
a37= 115.6924
t37= -205.7992
b38=   0.9933
a38= 119.0217
t38=  -9.5643
b39=   1.4483
a39= 121.7072
t39= 178.9142
b40=   1.0804
a40= 109.9306
t40= -48.8444
b41=   1.0841
a41= 111.6343
t41=  71.5628
b42=   1.0817
a42= 108.686
t42= -168.1346
