%chk=structure.chk
NProcShared=8
#HF/6-31G* SCF=tight opt=Z-Matrix Freq

Optimization of phi 530

0   1
    H
    C    1      b2
    H    2      b3    1      a3
    H    2      b4    3      a4    1      t4
    C    2      b5    4      a5    1      t5
    O    5      b6    2      a6    1      t6
    N    5      b7    2      a7    1      t7
    H    7      b8    5      a8    2      t8
    C    7      b9    5      a9    2      t9
    H    9     b10    7     a10    5     t10
    C    9     b11    7     a11    5     t11
    H   11     b12    9     a12    7     t12
    H   11     b13    9     a13    7     t13
    H   11     b14    9     a14    7     t14
    C    9     b15    7     a15    5     t15
    O   15     b16    9     a16    7     t16
    N   15     b17    9     a17    7     t17
    H   17     b18   15     a18    9     t18
    C   17     b19   15     a19    9     t19
    H   19     b20   17     a20   15     t20
    C   19     b21   17     a21   15     t21
    H   21     b22   19     a22   17     t22
    H   21     b23   19     a23   17     t23
    H   21     b24   19     a24   17     t24
    C   19     b25   17     a25   15     t25
    O   25     b26   19     a26   17     t26
    N   25     b27   19     a27   17     t27
    H   27     b28   25     a28   19     t28
    C   27     b29   25     a29   19     t29
    H   29     b30   27     a30   25     t30
    C   29     b31   27     a31   25     t31
    H   31     b32   29     a32   27     t32
    H   31     b33   29     a33   27     t33
    H   31     b34   29     a34   27     t34
    C   29     b35   27     a35   25     t35
    O   35     b36   29     a36   27     t36
    N   35     b37   29     a37   27     t37
    H   37     b38   35     a38   29     t38
    C   37     b39   35     a39   29     t39
    H   39     b40   37     a40   35     t40
    H   39     b41   37     a41   35     t41
    H   39     b42   37     a42   35     t42
Variables
b2=   1.0857
b3=   1.0803
a3= 108.3922
b4=   1.0841
a4= 109.6737
t4= 118.1214
b5=   1.5125
a5= 112.5102
t5= 120.5279
b6=   1.1982
a6= 122.529
t6= -90.7249
b7=   1.3633
a7= 115.6351
t7=  88.8752
b8=   0.9951
a8= 118.1192
t8=  -8.1611
b9=   1.4518
a9= 121.297
t9= 191.3597
b10=   1.0805
a10= 108.643
t10=  32.0928
b11=   1.5292
a11= 110.2115
t11= 152.0583
b12=   1.0865
a12= 111.091
t12=  60.1529
b13=   1.0811
a13= 109.7217
t13= 179.8583
b14=   1.0848
a14= 110.3347
t14= -60.3836
b15=   1.5298
a15= 114.3827
t15= 275.6408
b16=   1.2031
a16= 119.0642
t16= -194.1712
b17=   1.3493
a17= 117.4382
t17= -16.5442
b18=   0.9949
a18= 117.1862
t18= 374.0363
b19=   1.4556
a19= 121.7612
t19= 530.0
b20=   1.0793
a20= 106.629
t20=  32.3638
b21=   1.522
a21= 110.4477
t21= 151.9152
b22=   1.0828
a22= 110.9148
t22=  62.2649
b23=   1.084
a23= 110.4092
t23= -178.538
b24=   1.0841
a24= 109.8512
t24= -58.7079
b25=   1.5323
a25= 108.4114
t25= 274.1181
b26=   1.2056
a26= 121.13
t26= -88.3286
b27=   1.3425
a27= 115.1207
t27=  90.0
b28=   0.9982
a28= 120.0581
t28=  -4.6008
b29=   1.4443
a29= 122.0676
t29= -173.2522
b30=   1.0812
a30= 107.3072
t30= -32.9005
b31=   1.5345
a31= 112.1415
t31=  87.1852
b32=   1.084
a32= 110.2686
t32=  61.4392
b33=   1.0857
a33= 110.983
t33= -178.2341
b34=   1.0819
a34= 109.8238
t34= -57.893
b35=   1.5246
a35= 107.8939
t35= -151.6495
b36=   1.2021
a36= 121.5587
t36= -31.2514
b37=   1.3479
a37= 115.5464
t37= -208.4533
b38=   0.9932
a38= 118.9627
t38= -10.4233
b39=   1.4473
a39= 121.6533
t39= 179.068
b40=   1.082
a40= 108.7454
t40= 192.4747
b41=   1.0803
a41= 109.8663
t41= 311.7466
b42=   1.0844
a42= 111.7382
t42=  72.1047
