%chk=structure.chk
NProcShared=8
#HF/6-31G* SCF=tight opt=Z-Matrix Freq

Optimization of phi -174.3681

0   1
    H
    C    1      b2
    H    2      b3    1      a3
    H    2      b4    3      a4    1      t4
    C    2      b5    4      a5    1      t5
    O    5      b6    2      a6    1      t6
    N    5      b7    2      a7    1      t7
    H    7      b8    5      a8    2      t8
    C    7      b9    5      a9    2      t9
    H    9     b10    7     a10    5     t10
    C    9     b11    7     a11    5     t11
    H   11     b12    9     a12    7     t12
    H   11     b13    9     a13    7     t13
    H   11     b14    9     a14    7     t14
    C    9     b15    7     a15    5     t15
    O   15     b16    9     a16    7     t16
    N   15     b17    9     a17    7     t17
    H   17     b18   15     a18    9     t18
    C   17     b19   15     a19    9     t19
    H   19     b20   17     a20   15     t20
    C   19     b21   17     a21   15     t21
    H   21     b22   19     a22   17     t22
    H   21     b23   19     a23   17     t23
    H   21     b24   19     a24   17     t24
    C   19     b25   17     a25   15     t25
    O   25     b26   19     a26   17     t26
    N   25     b27   19     a27   17     t27
    H   27     b28   25     a28   19     t28
    C   27     b29   25     a29   19     t29
    H   29     b30   27     a30   25     t30
    C   29     b31   27     a31   25     t31
    H   31     b32   29     a32   27     t32
    H   31     b33   29     a33   27     t33
    H   31     b34   29     a34   27     t34
    C   29     b35   27     a35   25     t35
    O   35     b36   29     a36   27     t36
    N   35     b37   29     a37   27     t37
    H   37     b38   35     a38   29     t38
    C   37     b39   35     a39   29     t39
    H   39     b40   37     a40   35     t40
    H   39     b41   37     a41   35     t41
    H   39     b42   37     a42   35     t42
Variables
b2=   1.0844
b3=   1.0843
a3= 108.6831
b4=   1.0808
a4= 109.6806
t4= 118.8984
b5=   1.5109
a5= 108.7961
t5= 117.8005
b6=   1.2025
a6= 122.3458
t6=  89.3149
b7=   1.3561
a7= 115.4551
t7= 271.5212
b8=   0.9951
a8= 120.366
t8=  -5.7478
b9=   1.4457
a9= 122.3555
t9= 179.2571
b10=   1.0765
a10= 107.1702
t10= -24.4681
b11=   1.5329
a11= 112.7038
t11=  94.8183
b12=   1.0835
a12= 110.4728
t12=  59.2864
b13=   1.0852
a13= 110.8266
t13= 179.7737
b14=   1.0832
a14= 109.1166
t14= -60.6966
b15=   1.5232
a15= 108.1954
t15= 214.9081
b16=   1.1976
a16= 120.1367
t16= -49.839
b17=   1.3799
a17= 117.2619
t17= 138.3163
b18=   1.0031
a18= 109.0256
t18= 169.1135
b19=   1.4676
a19= 121.8475
t19= 300.0
b20=   1.0812
a20= 108.3608
t20=  43.6576
b21=   1.5214
a21= 109.9529
t21= 162.9861
b22=   1.0822
a22= 110.6555
t22=  61.5185
b23=   1.0842
a23= 110.5438
t23= -179.0444
b24=   1.0832
a24= 109.6118
t24= -58.9729
b25=   1.5334
a25= 108.4502
t25= 285.0067
b26=   1.2036
a26= 121.2931
t26= -86.8162
b27=   1.3449
a27= 115.5327
t27=  90.0
b28=   0.9968
a28= 121.4963
t28=   1.8739
b29=   1.4457
a29= 122.2027
t29= -172.5777
b30=   1.0827
a30= 108.256
t30= -45.659
b31=   1.535
a31= 112.2376
t31=  74.9491
b32=   1.0839
a32= 110.2186
t32=  59.6144
b33=   1.0853
a33= 111.0023
t33= -179.8602
b34=   1.0814
a34= 109.4837
t34= -60.053
b35=   1.5248
a35= 107.1909
t35= -164.4231
b36=   1.2053
a36= 121.2097
t36= -28.4991
b37=   1.342
a37= 115.9208
t37= -206.1595
b38=   0.9933
a38= 119.1629
t38=  -7.4596
b39=   1.4493
a39= 121.6965
t39= 178.1695
b40=   1.0812
a40= 110.3787
t40= -54.9517
b41=   1.083
a41= 111.262
t41=  65.5676
b42=   1.0812
a42= 108.542
t42= -174.3681
