%chk=structure.chk
NProcShared=8
#HF/6-31G* SCF=tight opt=Z-Matrix Freq

Optimization of phi -166.636

0   1
    H
    C    1      b2
    H    2      b3    1      a3
    H    2      b4    3      a4    1      t4
    C    2      b5    4      a5    1      t5
    O    5      b6    2      a6    1      t6
    N    5      b7    2      a7    1      t7
    H    7      b8    5      a8    2      t8
    C    7      b9    5      a9    2      t9
    H    9     b10    7     a10    5     t10
    C    9     b11    7     a11    5     t11
    H   11     b12    9     a12    7     t12
    H   11     b13    9     a13    7     t13
    H   11     b14    9     a14    7     t14
    C    9     b15    7     a15    5     t15
    O   15     b16    9     a16    7     t16
    N   15     b17    9     a17    7     t17
    H   17     b18   15     a18    9     t18
    C   17     b19   15     a19    9     t19
    H   19     b20   17     a20   15     t20
    C   19     b21   17     a21   15     t21
    H   21     b22   19     a22   17     t22
    H   21     b23   19     a23   17     t23
    H   21     b24   19     a24   17     t24
    C   19     b25   17     a25   15     t25
    O   25     b26   19     a26   17     t26
    N   25     b27   19     a27   17     t27
    H   27     b28   25     a28   19     t28
    C   27     b29   25     a29   19     t29
    H   29     b30   27     a30   25     t30
    C   29     b31   27     a31   25     t31
    H   31     b32   29     a32   27     t32
    H   31     b33   29     a33   27     t33
    H   31     b34   29     a34   27     t34
    C   29     b35   27     a35   25     t35
    O   35     b36   29     a36   27     t36
    N   35     b37   29     a37   27     t37
    H   37     b38   35     a38   29     t38
    C   37     b39   35     a39   29     t39
    H   39     b40   37     a40   35     t40
    H   39     b41   37     a41   35     t41
    H   39     b42   37     a42   35     t42
Variables
b2=   1.0834
b3=   1.0853
a3= 108.5187
b4=   1.0811
a4= 108.0854
t4= 118.9813
b5=   1.5133
a5= 108.7597
t5= 123.9581
b6=   1.2036
a6= 121.8879
t6= 156.6193
b7=   1.3491
a7= 115.5639
t7= 335.0457
b8=   0.9952
a8= 121.1512
t8=   5.06
b9=   1.4419
a9= 122.0634
t9= 179.6337
b10=   1.0811
a10= 107.8067
t10= -36.6108
b11=   1.5353
a11= 112.2823
t11=  83.2783
b12=   1.0845
a12= 110.2815
t12=  60.8426
b13=   1.0842
a13= 111.4767
t13= 181.4983
b14=   1.0819
a14= 108.8365
t14= -58.6273
b15=   1.5241
a15= 107.4677
t15= 203.9255
b16=   1.2002
a16= 120.9921
t16= -20.9925
b17=   1.3681
a17= 117.8678
t17= 166.6685
b18=   1.0003
a18= 110.4824
t18= 172.7174
b19=   1.4527
a19= 127.0577
t19= 320.0
b20=   1.0814
a20= 108.9679
t20=  48.6406
b21=   1.5299
a21= 108.9949
t21= 166.1365
b22=   1.0866
a22= 110.8228
t22=  61.4967
b23=   1.08
a23= 110.0678
t23= -178.744
b24=   1.0832
a24= 109.7924
t24= -58.1432
b25=   1.5344
a25= 116.3879
t25= 290.3456
b26=   1.2048
a26= 118.5582
t26= 179.1969
b27=   1.3424
a27= 118.5785
t27=   0.0
b28=   0.9962
a28= 122.6165
t28=  -1.3529
b29=   1.4467
a29= 121.1379
t29= 178.435
b30=   1.082
a30= 107.8985
t30= -37.7842
b31=   1.5341
a31= 112.0903
t31=  82.2826
b32=   1.0845
a32= 110.2937
t32=  60.8697
b33=   1.0849
a33= 111.0967
t33= 181.1863
b34=   1.0821
a34= 109.3542
t34= -59.0922
b35=   1.5252
a35= 107.4964
t35= 203.5148
b36=   1.2029
a36= 121.2362
t36= -26.1071
b37=   1.3452
a37= 115.5986
t37= 156.4337
b38=   0.9936
a38= 118.9152
t38= -10.8376
b39=   1.4487
a39= 121.6948
t39= 179.6627
b40=   1.08
a40= 109.7706
t40= -47.4074
b41=   1.0842
a41= 111.6932
t41=  72.9969
b42=   1.0816
a42= 108.701
t42= -166.636
