%chk=structure.chk
NProcShared=8
#P hf/6-31G* Opt=(Tight,CalcFC) Freq SCF(Conver=6) Test

Optimization of phi 530

0   1
    H
    C    1      b2
    H    2      b3    1      a3
    H    2      b4    3      a4    1      t4
    C    2      b5    4      a5    1      t5
    O    5      b6    2      a6    1      t6
    N    5      b7    2      a7    1      t7
    H    7      b8    5      a8    2      t8
    C    7      b9    5      a9    2      t9
    H    9     b10    7     a10    5     t10
    C    9     b11    7     a11    5     t11
    H   11     b12    9     a12    7     t12
    H   11     b13    9     a13    7     t13
    H   11     b14    9     a14    7     t14
    C    9     b15    7     a15    5     t15
    O   15     b16    9     a16    7     t16
    N   15     b17    9     a17    7     t17
    H   17     b18   15     a18    9     t18
    C   17     b19   15     a19    9     t19
    H   19     b20   17     a20   15     t20
    C   19     b21   17     a21   15     t21
    H   21     b22   19     a22   17     t22
    H   21     b23   19     a23   17     t23
    H   21     b24   19     a24   17     t24
    C   19     b25   17     a25   15     t25
    O   25     b26   19     a26   17     t26
    N   25     b27   19     a27   17     t27
    H   27     b28   25     a28   19     t28
    C   27     b29   25     a29   19     t29
    H   29     b30   27     a30   25     t30
    C   29     b31   27     a31   25     t31
    H   31     b32   29     a32   27     t32
    H   31     b33   29     a33   27     t33
    H   31     b34   29     a34   27     t34
    C   29     b35   27     a35   25     t35
    O   35     b36   29     a36   27     t36
    N   35     b37   29     a37   27     t37
    H   37     b38   35     a38   29     t38
    C   37     b39   35     a39   29     t39
    H   39     b40   37     a40   35     t40
    H   39     b41   37     a41   35     t41
    H   39     b42   37     a42   35     t42
Variables
b2=   1.081
b3=   1.0836
a3= 110.1806
b4=   1.0854
a4= 108.6528
t4= 118.4073
b5=   1.5084
a5= 108.3103
t5= 117.4343
b6=   1.2055
a6= 122.2704
t6=  40.3868
b7=   1.3585
a7= 117.1216
t7= 220.8796
b8=   0.9952
a8= 117.9658
t8=  -9.8577
b9=   1.4542
a9= 120.3898
t9= 193.3097
b10=   1.0811
a10= 109.242
t10=  42.1613
b11=   1.5291
a11= 109.8397
t11= 162.2028
b12=   1.0861
a12= 111.184
t12=  60.174
b13=   1.0813
a13= 109.6072
t13= 180.0116
b14=   1.0853
a14= 110.5265
t14= -60.5
b15=   1.5309
a15= 114.595
t15= 285.9188
b16=   1.2002
a16= 118.5936
t16= -199.7219
b17=   1.3509
a17= 117.6245
t17= -20.8207
b18=   0.9948
a18= 117.7909
t18= 359.6444
b19=   1.4499
a19= 123.0113
t19= 530.0
b20=   1.0796
a20= 106.3982
t20=   7.925
b21=   1.5308
a21= 110.9863
t21= 126.4201
b22=   1.0869
a22= 110.9318
t22=  61.0733
b23=   1.0805
a23= 110.3377
t23= -178.9494
b24=   1.0836
a24= 109.577
t24= -58.4947
b25=   1.5328
a25= 114.678
t25= 250.9438
b26=   1.2035
a26= 119.0002
t26= 182.1191
b27=   1.348
a27= 117.9594
t27=   0.0
b28=   0.996
a28= 118.8167
t28=  18.1284
b29=   1.4589
a29= 120.7871
t29= 180.26
b30=   1.0836
a30= 108.466
t30= -45.4163
b31=   1.5262
a31= 112.0312
t31=  74.9577
b32=   1.0817
a32= 110.0664
t32=  61.4769
b33=   1.0857
a33= 110.2171
t33= 181.0106
b34=   1.0811
a34= 109.8065
t34= -59.4921
b35=   1.5303
a35= 107.0692
t35= 195.8756
b36=   1.204
a36= 121.3038
t36= -78.2823
b37=   1.3445
a37= 115.6942
t37= 102.1908
b38=   0.9938
a38= 118.0096
t38= -11.2212
b39=   1.4484
a39= 121.1115
t39= 188.4253
b40=   1.0819
a40= 108.6522
t40= -171.9391
b41=   1.0803
a41= 109.6513
t41= -52.9938
b42=   1.0835
a42= 111.2775
t42= -292.445
