%chk=structure.chk
NProcShared=8
#HF/6-31G* SCF=tight opt=Z-Matrix Freq

Optimization of phi 350.0

0   1
    H
    C    1      b2
    H    2      b3    1      a3
    H    2      b4    3      a4    1      t4
    C    2      b5    4      a5    1      t5
    O    5      b6    2      a6    1      t6
    N    5      b7    2      a7    1      t7
    H    7      b8    5      a8    2      t8
    C    7      b9    5      a9    2      t9
    H    9     b10    7     a10    5     t10
    C    9     b11    7     a11    5     t11
    H   11     b12    9     a12    7     t12
    H   11     b13    9     a13    7     t13
    H   11     b14    9     a14    7     t14
    C    9     b15    7     a15    5     t15
    O   15     b16    9     a16    7     t16
    N   15     b17    9     a17    7     t17
    H   17     b18   15     a18    9     t18
    C   17     b19   15     a19    9     t19
    H   19     b20   17     a20   15     t20
    C   19     b21   17     a21   15     t21
    H   21     b22   19     a22   17     t22
    H   21     b23   19     a23   17     t23
    H   21     b24   19     a24   17     t24
    C   19     b25   17     a25   15     t25
    O   25     b26   19     a26   17     t26
    N   25     b27   19     a27   17     t27
    H   27     b28   25     a28   19     t28
    C   27     b29   25     a29   19     t29
    H   29     b30   27     a30   25     t30
    C   29     b31   27     a31   25     t31
    H   31     b32   29     a32   27     t32
    H   31     b33   29     a33   27     t33
    H   31     b34   29     a34   27     t34
    C   29     b35   27     a35   25     t35
    O   35     b36   29     a36   27     t36
    N   35     b37   29     a37   27     t37
    H   37     b38   35     a38   29     t38
    C   37     b39   35     a39   29     t39
    H   39     b40   37     a40   35     t40
    H   39     b41   37     a41   35     t41
    H   39     b42   37     a42   35     t42
Variables
b2=   1.0822
b3=   1.0831
a3= 110.082
b4=   1.0837
a4= 109.1012
t4= 118.0518
b5=   1.5086
a5= 108.2414
t5= 116.6951
b6=   1.2096
a6= 121.1597
t6=  54.3763
b7=   1.3487
a7= 116.8513
t7= 233.6278
b8=   0.9953
a8= 119.1099
t8=  10.2486
b9=   1.4528
a9= 122.6242
t9= 176.6257
b10=   1.0754
a10= 106.7173
t10=  25.0668
b11=   1.5262
a11= 110.4218
t11= 143.7132
b12=   1.0822
a12= 110.8348
t12=  61.3875
b13=   1.0847
a13= 110.4427
t13= 180.8294
b14=   1.0839
a14= 109.7163
t14= -59.5309
b15=   1.5329
a15= 108.6537
t15= 264.0471
b16=   1.2037
a16= 118.9017
t16= -72.641
b17=   1.3518
a17= 119.9815
t17= 107.607
b18=   0.9997
a18= 112.5483
t18= 178.171
b19=   1.4588
a19= 131.2628
t19= 350.0
b20=   1.0764
a20= 108.6846
t20=  -5.8391
b21=   1.5237
a21= 111.6067
t21= 116.0985
b22=   1.0819
a22= 110.7166
t22=  59.769
b23=   1.0849
a23= 110.5919
t23= -180.4719
b24=   1.0846
a24= 109.8339
t24= -60.6327
b25=   1.534
a25= 106.2039
t25= 237.4825
b26=   1.2057
a26= 120.8221
t26= -86.4664
b27=   1.3425
a27= 115.8471
t27=  90.0
b28=   1.0001
a28= 120.5193
t28=   4.624
b29=   1.4474
a29= 121.15
t29= -173.2684
b30=   1.0827
a30= 108.1543
t30= -45.1016
b31=   1.5342
a31= 112.3729
t31=  75.1276
b32=   1.0837
a32= 110.0849
t32=  60.2085
b33=   1.0858
a33= 110.7425
t33= -179.6414
b34=   1.0815
a34= 109.6173
t34= -59.9741
b35=   1.5234
a35= 108.0539
t35= -164.6511
b36=   1.204
a36= 121.3156
t36= -41.3945
b37=   1.3446
a37= 115.8486
t37= -218.3889
b38=   0.993
a38= 119.0274
t38= -10.0629
b39=   1.4482
a39= 121.6171
t39= 178.683
b40=   1.0808
a40= 110.0829
t40= -51.7191
b41=   1.0837
a41= 111.5167
t41=  68.708
b42=   1.0816
a42= 108.6397
t42= -171.0315
