%chk=structure.chk
NProcShared=8
#HF/6-31G* SCF=tight opt=Z-Matrix Freq

Optimization of phi -292.3414

0   1
    H
    C    1      b2
    H    2      b3    1      a3
    H    2      b4    3      a4    1      t4
    C    2      b5    4      a5    1      t5
    O    5      b6    2      a6    1      t6
    N    5      b7    2      a7    1      t7
    H    7      b8    5      a8    2      t8
    C    7      b9    5      a9    2      t9
    H    9     b10    7     a10    5     t10
    C    9     b11    7     a11    5     t11
    H   11     b12    9     a12    7     t12
    H   11     b13    9     a13    7     t13
    H   11     b14    9     a14    7     t14
    C    9     b15    7     a15    5     t15
    O   15     b16    9     a16    7     t16
    N   15     b17    9     a17    7     t17
    H   17     b18   15     a18    9     t18
    C   17     b19   15     a19    9     t19
    H   19     b20   17     a20   15     t20
    C   19     b21   17     a21   15     t21
    H   21     b22   19     a22   17     t22
    H   21     b23   19     a23   17     t23
    H   21     b24   19     a24   17     t24
    C   19     b25   17     a25   15     t25
    O   25     b26   19     a26   17     t26
    N   25     b27   19     a27   17     t27
    H   27     b28   25     a28   19     t28
    C   27     b29   25     a29   19     t29
    H   29     b30   27     a30   25     t30
    C   29     b31   27     a31   25     t31
    H   31     b32   29     a32   27     t32
    H   31     b33   29     a33   27     t33
    H   31     b34   29     a34   27     t34
    C   29     b35   27     a35   25     t35
    O   35     b36   29     a36   27     t36
    N   35     b37   29     a37   27     t37
    H   37     b38   35     a38   29     t38
    C   37     b39   35     a39   29     t39
    H   39     b40   37     a40   35     t40
    H   39     b41   37     a41   35     t41
    H   39     b42   37     a42   35     t42
Variables
b2=   1.0808
b3=   1.0836
a3= 110.1823
b4=   1.0853
a4= 108.6722
t4= 118.4187
b5=   1.5083
a5= 108.2308
t5= 117.3811
b6=   1.2062
a6= 122.2165
t6=  42.1545
b7=   1.3574
a7= 117.0425
t7= 222.5004
b8=   0.9951
a8= 117.9645
t8=  -8.2378
b9=   1.4537
a9= 120.86
t9= 193.6816
b10=   1.0809
a10= 108.4604
t10=  33.026
b11=   1.5289
a11= 109.951
t11= 152.5502
b12=   1.0866
a12= 111.1468
t12=  60.2221
b13=   1.0806
a13= 109.6303
t13= 179.8981
b14=   1.0849
a14= 110.4268
t14= -60.3199
b15=   1.5321
a15= 115.3442
t15= 277.4416
b16=   1.2009
a16= 118.0415
t16= -190.451
b17=   1.3518
a17= 118.4924
t17=  -8.3075
b18=   0.9947
a18= 117.5437
t18= 355.1812
b19=   1.4523
a19= 122.4669
t19= 520.0
b20=   1.0798
a20= 106.3112
t20=   4.3149
b21=   1.5316
a21= 111.03
t21= 122.4281
b22=   1.0866
a22= 110.8595
t22=  61.4743
b23=   1.0805
a23= 110.4784
t23= -178.3576
b24=   1.0834
a24= 109.3621
t24= -57.9049
b25=   1.5324
a25= 115.0318
t25= 247.101
b26=   1.2031
a26= 118.6854
t26= 182.371
b27=   1.3496
a27= 118.4244
t27=   0.0
b28=   0.9962
a28= 118.7564
t28=  21.4059
b29=   1.4595
a29= 120.3565
t29= 180.3793
b30=   1.0838
a30= 108.6293
t30= -46.3445
b31=   1.527
a31= 111.9646
t31=  74.0832
b32=   1.0818
a32= 109.9777
t32=  61.2327
b33=   1.0858
a33= 110.1417
t33= 180.7185
b34=   1.0808
a34= 109.9183
t34= -59.7734
b35=   1.5298
a35= 107.2872
t35= 194.6198
b36=   1.204
a36= 121.2175
t36= -74.519
b37=   1.3443
a37= 115.788
t37= 106.4341
b38=   0.9936
a38= 118.1046
t38= -11.4674
b39=   1.4483
a39= 121.1258
t39= 187.6182
b40=   1.0819
a40= 108.6664
t40= -171.8523
b41=   1.0803
a41= 109.6763
t41= -52.8771
b42=   1.0835
a42= 111.259
t42= -292.3414
