%chk=structure.chk
NProcShared=8
#HF/6-31G* SCF=tight opt=Z-Matrix Freq

Optimization of phi 330

0   1
    H
    C    1      b2
    H    2      b3    1      a3
    H    2      b4    3      a4    1      t4
    C    2      b5    4      a5    1      t5
    O    5      b6    2      a6    1      t6
    N    5      b7    2      a7    1      t7
    H    7      b8    5      a8    2      t8
    C    7      b9    5      a9    2      t9
    H    9     b10    7     a10    5     t10
    C    9     b11    7     a11    5     t11
    H   11     b12    9     a12    7     t12
    H   11     b13    9     a13    7     t13
    H   11     b14    9     a14    7     t14
    C    9     b15    7     a15    5     t15
    O   15     b16    9     a16    7     t16
    N   15     b17    9     a17    7     t17
    H   17     b18   15     a18    9     t18
    C   17     b19   15     a19    9     t19
    H   19     b20   17     a20   15     t20
    C   19     b21   17     a21   15     t21
    H   21     b22   19     a22   17     t22
    H   21     b23   19     a23   17     t23
    H   21     b24   19     a24   17     t24
    C   19     b25   17     a25   15     t25
    O   25     b26   19     a26   17     t26
    N   25     b27   19     a27   17     t27
    H   27     b28   25     a28   19     t28
    C   27     b29   25     a29   19     t29
    H   29     b30   27     a30   25     t30
    C   29     b31   27     a31   25     t31
    H   31     b32   29     a32   27     t32
    H   31     b33   29     a33   27     t33
    H   31     b34   29     a34   27     t34
    C   29     b35   27     a35   25     t35
    O   35     b36   29     a36   27     t36
    N   35     b37   29     a37   27     t37
    H   37     b38   35     a38   29     t38
    C   37     b39   35     a39   29     t39
    H   39     b40   37     a40   35     t40
    H   39     b41   37     a41   35     t41
    H   39     b42   37     a42   35     t42
Variables
b2=   1.0823
b3=   1.0831
a3= 110.0635
b4=   1.0835
a4= 109.176
t4= 118.1138
b5=   1.5082
a5= 108.2669
t5= 116.6539
b6=   1.2099
a6= 121.2388
t6=  57.3556
b7=   1.3491
a7= 116.9021
t7= 236.6777
b8=   0.9952
a8= 118.9708
t8=  12.145
b9=   1.4509
a9= 122.1019
t9= 175.7285
b10=   1.0755
a10= 106.8963
t10=  28.8943
b11=   1.5276
a11= 110.3202
t11= 147.4857
b12=   1.0827
a12= 110.7671
t12=  61.1966
b13=   1.0847
a13= 110.4176
t13= 180.7122
b14=   1.0838
a14= 109.7557
t14= -59.6273
b15=   1.5322
a15= 109.5709
t15= 267.4442
b16=   1.2021
a16= 118.947
t16= -65.2715
b17=   1.3573
a17= 119.4335
t17= 119.1377
b18=   1.0005
a18= 111.7303
t18= 175.4921
b19=   1.4621
a19= 129.2268
t19= 330.0
b20=   1.077
a20= 108.6874
t20=  9.7205
b21=   1.5228
a21= 111.0653
t21= 131.178
b22=   1.0819
a22= 110.7123
t22=  59.8756
b23=   1.0848
a23= 110.5872
t23= -180.4105
b24=   1.0843
a24= 109.7573
t24= -60.5094
b25=   1.5344
a25= 106.6656
t25= 252.5219
b26=   1.2058
a26= 120.7272
t26= -85.9742
b27=   1.3428
a27= 115.9894
t27=  90.0
b28=   1.0002
a28= 120.6254
t28=   6.4095
b29=   1.4477
a29= 121.0313
t29= -173.1949
b30=   1.0826
a30= 108.1534
t30= -44.3539
b31=   1.5342
a31= 112.2815
t31=  75.8249
b32=   1.0836
a32= 110.0976
t32=  60.1444
b33=   1.0858
a33= 110.7527
t33= -179.6524
b34=   1.0815
a34= 109.602
t34= -59.9955
b35=   1.5233
a35= 108.1589
t35= -163.913
b36=   1.204
a36= 121.3679
t36= -41.0149
b37=   1.3445
a37= 115.8187
t37= -218.0189
b38=   0.993
a38= 119.0505
t38=  -9.8291
b39=   1.4482
a39= 121.621
t39= 178.5408
b40=   1.0808
a40= 110.118
t40= -52.0383
b41=   1.0837
a41= 111.4952
t41=  68.3995
b42=   1.0816
a42= 108.6352
t42= -171.3625
