%chk=structure.chk
NProcShared=8
#HF/6-31G* SCF=tight opt=Z-Matrix

Scanning Phi 180:540 and Psi fixed at 150

0   1
    H
    C    1      b2
    H    2      b3    1      a3
    H    2      b4    3      a4    1      t4
    C    2      b5    4      a5    1      t5
    O    5      b6    2      a6    1      t6
    N    5      b7    2      a7    1      t7
    H    7      b8    5      a8    2      t8
    C    7      b9    5      a9    2      t9
    H    9     b10    7     a10    5     t10
    C    9     b11    7     a11    5     t11
    H   11     b12    9     a12    7     t12
    H   11     b13    9     a13    7     t13
    H   11     b14    9     a14    7     t14
    C    9     b15    7     a15    5     t15
    O   15     b16    9     a16    7     t16
    N   15     b17    9     a17    7     t17
    H   17     b18   15     a18    9     t18
    C   17     b19   15     a19    9     t19
    H   19     b20   17     a20   15     t20
    C   19     b21   17     a21   15     t21
    H   21     b22   19     a22   17     t22
    H   21     b23   19     a23   17     t23
    H   21     b24   19     a24   17     t24
    C   19     b25   17     a25   15     t25
    O   25     b26   19     a26   17     t26
    N   25     b27   19     a27   17     t27
    H   27     b28   25     a28   19     t28
    C   27     b29   25     a29   19     t29
    H   29     b30   27     a30   25     t30
    C   29     b31   27     a31   25     t31
    H   31     b32   29     a32   27     t32
    H   31     b33   29     a33   27     t33
    H   31     b34   29     a34   27     t34
    C   29     b35   27     a35   25     t35
    O   35     b36   29     a36   27     t36
    N   35     b37   29     a37   27     t37
    H   37     b38   35     a38   29     t38
    C   37     b39   35     a39   29     t39
    H   39     b40   37     a40   35     t40
    H   39     b41   37     a41   35     t41
    H   39     b42   37     a42   35     t42
Variables:
b2=   1.0900
b3=   1.0903
a3= 109.5025
b4=   1.0903
a4= 109.4275
t4= 120.0306
b5=   1.5297
a5= 108.6341
t5= 121.5132
b6=   1.2300
a6= 120.4893
t6=   0.0000
b7=   1.3351
a7= 116.6142
t7= 180.0000
b8=   1.0095
a8= 119.9835
t8=  -0.0000
b9=   1.4490
a9= 121.8896
t9= 180.0000
b10=   1.0904
a10= 109.5417
t10= -60.0107
b11=   1.5248
a11= 111.1081
t11=  60.0045
b12=   1.0898
a12= 109.5094
t12=  59.9636
b13=   1.0898
a13= 109.5183
t13= 179.9793
b14=   1.0901
a14= 109.5085
t14= -60.0531
b15=   1.5215
a15= 111.1085
t15= 180.0000
b16=   1.2293
a16= 120.5106
t16=  -0.0000
b17=   1.3350
a17= 116.6484
t17= 180.0000
b18=   1.0102
a18= 119.9594
t18=   0.0000
b19=   1.4490
a19= 121.9280
t19= 180.0 S 36 10.0
b20=   1.0903
a20= 109.5025
t20= -59.9924
b21=   1.5247
a21= 111.1044
t21=  60.0103
b22=   1.0897
a22= 109.5268
t22=  59.9938
b23=   1.0894
a23= 109.5255
t23= -179.9998
b24=   1.0901
a24= 109.4888
t24= -60.0277
b25=   1.5221
a25= 111.1024
t25= 180.0000
b26=   1.2287
a26= 120.5020
t26= -29.9788
b27=   1.3346
a27= 116.6215
t27= 150.0 F
b28=   1.0105
a28= 119.9943
t28=   0.0912
b29=   1.4489
a29= 121.9401
t29= 179.9890
b30=   1.0903
a30= 109.4741
t30= -59.9416
b31=   1.5250
a31= 111.0720
t31=  60.0123
b32=   1.0902
a32= 109.5089
t32=  60.0469
b33=   1.0900
a33= 109.4836
t33= -179.9836
b34=   1.0893
a34= 109.5241
t34= -59.9979
b35=   1.5215
a35= 111.1182
t35= -179.9711
b36=   1.2290
a36= 120.5317
t36=   0.0383
b37=   1.3350
a37= 116.6300
t37= 179.9838
b38=   1.0101
a38= 119.9324
t38=   0.0643
b39=   1.4490
a39= 121.9630
t39= 179.9862
b40=   1.0907
a40= 109.4535
t40=   0.0216
b41=   1.0893
a41= 109.4987
t41= 120.0318
b42=   1.0899
a42= 109.5047
t42= -119.9338


