%chk=structure.chk
NProcShared=8
#HF/6-31G* SCF=tight opt=Z-Matrix Freq

Optimization of phi 460.0

0   1
    H
    C    1      b2
    H    2      b3    1      a3
    H    2      b4    3      a4    1      t4
    C    2      b5    4      a5    1      t5
    O    5      b6    2      a6    1      t6
    N    5      b7    2      a7    1      t7
    H    7      b8    5      a8    2      t8
    C    7      b9    5      a9    2      t9
    H    9     b10    7     a10    5     t10
    C    9     b11    7     a11    5     t11
    H   11     b12    9     a12    7     t12
    H   11     b13    9     a13    7     t13
    H   11     b14    9     a14    7     t14
    C    9     b15    7     a15    5     t15
    O   15     b16    9     a16    7     t16
    N   15     b17    9     a17    7     t17
    H   17     b18   15     a18    9     t18
    C   17     b19   15     a19    9     t19
    H   19     b20   17     a20   15     t20
    C   19     b21   17     a21   15     t21
    H   21     b22   19     a22   17     t22
    H   21     b23   19     a23   17     t23
    H   21     b24   19     a24   17     t24
    C   19     b25   17     a25   15     t25
    O   25     b26   19     a26   17     t26
    N   25     b27   19     a27   17     t27
    H   27     b28   25     a28   19     t28
    C   27     b29   25     a29   19     t29
    H   29     b30   27     a30   25     t30
    C   29     b31   27     a31   25     t31
    H   31     b32   29     a32   27     t32
    H   31     b33   29     a33   27     t33
    H   31     b34   29     a34   27     t34
    C   29     b35   27     a35   25     t35
    O   35     b36   29     a36   27     t36
    N   35     b37   29     a37   27     t37
    H   37     b38   35     a38   29     t38
    C   37     b39   35     a39   29     t39
    H   39     b40   37     a40   35     t40
    H   39     b41   37     a41   35     t41
    H   39     b42   37     a42   35     t42
Variables
b2=   1.0802
b3=   1.0844
a3= 110.103
b4=   1.0857
a4= 108.2142
t4= 118.4649
b5=   1.5108
a5= 108.6162
t5= 118.3118
b6=   1.2064
a6= 121.8923
t6=  26.7221
b7=   1.3513
a7= 116.0542
t7= 204.0168
b8=   0.9946
a8= 118.4423
t8=  11.944
b9=   1.4436
a9= 122.4933
t9= 178.8492
b10=   1.0837
a10= 106.4047
t10=  33.87
b11=   1.5274
a11= 110.2792
t11= 151.7271
b12=   1.0861
a12= 111.1439
t12=  62.659
b13=   1.0799
a13= 110.6402
t13= 182.2394
b14=   1.0836
a14= 109.5425
t14= -57.3494
b15=   1.5386
a15= 113.9765
t15= 277.0313
b16=   1.1906
a16= 120.2027
t16= -150.1401
b17=   1.4182
a17= 117.3505
t17=  24.4473
b18=   1.0056
a18= 105.3361
t18= 216.5208
b19=   1.4821
a19= 115.2738
t19= 460.0
b20=   1.081
a20= 106.999
t20= -56.2921
b21=   1.5252
a21= 114.5981
t21=  66.2411
b22=   1.0822
a22= 110.8184
t22=  60.6324
b23=   1.0853
a23= 109.8687
t23= -180.1924
b24=   1.0825
a24= 110.8732
t24= -60.3474
b25=   1.5293
a25= 104.8615
t25= 188.0866
b26=   1.2055
a26= 120.9931
t26= -88.8014
b27=   1.345
a27= 116.0375
t27=  90.0
b28=   0.9999
a28= 119.9803
t28=  -6.2309
b29=   1.447
a29= 120.8066
t29= -174.4874
b30=   1.082
a30= 107.685
t30= -45.2961
b31=   1.5341
a31= 112.8895
t31=  74.7403
b32=   1.0837
a32= 110.2383
t32=  60.5946
b33=   1.0859
a33= 110.7219
t33= -179.3365
b34=   1.0815
a34= 109.5418
t34= -59.657
b35=   1.5231
a35= 107.9088
t35= -164.5697
b36=   1.2041
a36= 121.1712
t36= -43.9143
b37=   1.3449
a37= 115.9755
t37= -221.0198
b38=   0.9931
a38= 118.9164
t38= -10.7817
b39=   1.4482
a39= 121.6226
t39= 179.3409
b40=   1.0804
a40= 109.9307
t40= -49.9864
b41=   1.084
a41= 111.6175
t41=  70.3791
b42=   1.0817
a42= 108.6759
t42= -169.2706
