%chk=structure.chk
NProcShared=8
#HF/6-31G* SCF=tight opt=Z-Matrix Freq

Optimization of phi 190

0   1
    H
    C    1      b2
    H    2      b3    1      a3
    H    2      b4    3      a4    1      t4
    C    2      b5    4      a5    1      t5
    O    5      b6    2      a6    1      t6
    N    5      b7    2      a7    1      t7
    H    7      b8    5      a8    2      t8
    C    7      b9    5      a9    2      t9
    H    9     b10    7     a10    5     t10
    C    9     b11    7     a11    5     t11
    H   11     b12    9     a12    7     t12
    H   11     b13    9     a13    7     t13
    H   11     b14    9     a14    7     t14
    C    9     b15    7     a15    5     t15
    O   15     b16    9     a16    7     t16
    N   15     b17    9     a17    7     t17
    H   17     b18   15     a18    9     t18
    C   17     b19   15     a19    9     t19
    H   19     b20   17     a20   15     t20
    C   19     b21   17     a21   15     t21
    H   21     b22   19     a22   17     t22
    H   21     b23   19     a23   17     t23
    H   21     b24   19     a24   17     t24
    C   19     b25   17     a25   15     t25
    O   25     b26   19     a26   17     t26
    N   25     b27   19     a27   17     t27
    H   27     b28   25     a28   19     t28
    C   27     b29   25     a29   19     t29
    H   29     b30   27     a30   25     t30
    C   29     b31   27     a31   25     t31
    H   31     b32   29     a32   27     t32
    H   31     b33   29     a33   27     t33
    H   31     b34   29     a34   27     t34
    C   29     b35   27     a35   25     t35
    O   35     b36   29     a36   27     t36
    N   35     b37   29     a37   27     t37
    H   37     b38   35     a38   29     t38
    C   37     b39   35     a39   29     t39
    H   39     b40   37     a40   35     t40
    H   39     b41   37     a41   35     t41
    H   39     b42   37     a42   35     t42
Variables
b2=   1.0819
b3=   1.0831
a3= 109.6046
b4=   1.0846
a4= 108.7726
t4= 117.6581
b5=   1.513
a5= 108.5411
t5= 117.5365
b6=   1.2036
a6= 121.6894
t6=  44.0705
b7=   1.3489
a7= 115.8468
t7= 222.94
b8=   0.9952
a8= 121.3017
t8=   4.6046
b9=   1.4416
a9= 121.9831
t9= 179.2114
b10=   1.0829
a10= 108.394
t10= -39.2668
b11=   1.5354
a11= 112.1476
t11=  81.0071
b12=   1.0846
a12= 110.3389
t12=  60.9299
b13=   1.0853
a13= 111.5797
t13= 181.5846
b14=   1.0816
a14= 109.0398
t14= -58.7088
b15=   1.526
a15= 107.4844
t15= 202.947
b16=   1.2057
a16= 121.7243
t16= -17.5678
b17=   1.347
a17= 115.7431
t17= 162.1513
b18=   0.9951
a18= 119.2393
t18=  -0.4403
b19=   1.4572
a19= 122.3162
t19= 190.0
b20=   1.0803
a20= 106.9486
t20=  24.1357
b21=   1.5222
a21= 110.3032
t21= 143.9325
b22=   1.0827
a22= 110.8515
t22=  62.4678
b23=   1.0834
a23= 110.2574
t23= -178.5074
b24=   1.0845
a24= 110.0798
t24= -58.8387
b25=   1.5327
a25= 108.8151
t25= 266.0247
b26=   1.2046
a26= 121.4585
t26= -89.7111
b27=   1.3434
a27= 114.9885
t27=  90.0
b28=   0.9988
a28= 120.0861
t28=  -8.2369
b29=   1.444
a29= 121.7868
t29= -175.546
b30=   1.0818
a30= 107.6085
t30= -39.011
b31=   1.5345
a31= 112.3889
t31=  81.0753
b32=   1.0844
a32= 110.1991
t32=  60.3073
b33=   1.0853
a33= 111.1355
t33= -179.3522
b34=   1.0825
a34= 109.3935
t34= -59.5771
b35=   1.525
a35= 107.6745
t35= -157.7975
b36=   1.2022
a36= 121.3787
t36= -31.0588
b37=   1.3469
a37= 115.5976
t37= -208.2636
b38=   0.9933
a38= 118.9654
t38= -10.7973
b39=   1.4481
a39= 121.6348
t39= 179.2771
b40=   1.0802
a40= 109.8447
t40= -48.3821
b41=   1.0842
a41= 111.7046
t41=  71.9883
b42=   1.0818
a42= 108.7158
t42= -167.6378
