%chk=structure.chk
NProcShared=8
#HF/6-31G* SCF=tight opt=Z-Matrix Freq

Optimization of phi 420.0

0   1
    H
    C    1      b2
    H    2      b3    1      a3
    H    2      b4    3      a4    1      t4
    C    2      b5    4      a5    1      t5
    O    5      b6    2      a6    1      t6
    N    5      b7    2      a7    1      t7
    H    7      b8    5      a8    2      t8
    C    7      b9    5      a9    2      t9
    H    9     b10    7     a10    5     t10
    C    9     b11    7     a11    5     t11
    H   11     b12    9     a12    7     t12
    H   11     b13    9     a13    7     t13
    H   11     b14    9     a14    7     t14
    C    9     b15    7     a15    5     t15
    O   15     b16    9     a16    7     t16
    N   15     b17    9     a17    7     t17
    H   17     b18   15     a18    9     t18
    C   17     b19   15     a19    9     t19
    H   19     b20   17     a20   15     t20
    C   19     b21   17     a21   15     t21
    H   21     b22   19     a22   17     t22
    H   21     b23   19     a23   17     t23
    H   21     b24   19     a24   17     t24
    C   19     b25   17     a25   15     t25
    O   25     b26   19     a26   17     t26
    N   25     b27   19     a27   17     t27
    H   27     b28   25     a28   19     t28
    C   27     b29   25     a29   19     t29
    H   29     b30   27     a30   25     t30
    C   29     b31   27     a31   25     t31
    H   31     b32   29     a32   27     t32
    H   31     b33   29     a33   27     t33
    H   31     b34   29     a34   27     t34
    C   29     b35   27     a35   25     t35
    O   35     b36   29     a36   27     t36
    N   35     b37   29     a37   27     t37
    H   37     b38   35     a38   29     t38
    C   37     b39   35     a39   29     t39
    H   39     b40   37     a40   35     t40
    H   39     b41   37     a41   35     t41
    H   39     b42   37     a42   35     t42
Variables
b2=   1.0815
b3=   1.0835
a3= 110.1488
b4=   1.0848
a4= 108.758
t4= 118.0269
b5=   1.5099
a5= 108.3181
t5= 117.1048
b6=   1.2076
a6= 121.2189
t6=  41.8112
b7=   1.3499
a7= 116.5967
t7= 220.2072
b8=   0.995
a8= 118.9472
t8=   5.8266
b9=   1.4511
a9= 123.1861
t9= 179.3057
b10=   1.0793
a10= 106.087
t10=  19.3706
b11=   1.5236
a11= 110.8305
t11= 138.0037
b12=   1.0831
a12= 111.2114
t12=  61.0648
b13=   1.0829
a13= 110.593
t13= 180.3269
b14=   1.0839
a14= 109.5737
t14= -59.6805
b15=   1.5374
a15= 109.3156
t15= 260.9589
b16=   1.196
a16= 120.859
t16= -107.789
b17=   1.3817
a17= 117.0682
t17=  62.5421
b18=   1.0029
a18= 107.9785
t18= 189.9061
b19=   1.4692
a19= 122.8079
t19= 420.0
b20=   1.0781
a20= 108.082
t20= -51.1087
b21=   1.525
a21= 113.057
t21=  71.4538
b22=   1.082
a22= 110.8639
t22=  59.9218
b23=   1.085
a23= 110.5178
t23= -180.3121
b24=   1.0857
a24= 110.308
t24= -60.7105
b25=   1.5309
a25= 105.0536
t25= 192.9775
b26=   1.2055
a26= 120.9029
t26= -88.2052
b27=   1.3434
a27= 115.8044
t27=  90.0
b28=   1.0004
a28= 119.9642
t28=  -3.6944
b29=   1.4475
a29= 121.0146
t29= -172.4363
b30=   1.0823
a30= 107.9252
t30= -47.3976
b31=   1.5341
a31= 112.7373
t31=  72.8936
b32=   1.0837
a32= 110.0843
t32=  60.178
b33=   1.0859
a33= 110.6832
t33= -179.7986
b34=   1.0814
a34= 109.6668
t34= -60.0917
b35=   1.5235
a35= 107.8311
t35= -166.8624
b36=   1.2039
a36= 121.1373
t36= -44.7948
b37=   1.345
a37= 115.9837
t37= -221.8308
b38=   0.993
a38= 118.9476
t38= -10.606
b39=   1.4481
a39= 121.6061
t39= 179.2033
b40=   1.0805
a40= 109.9686
t40= -50.5197
b41=   1.0839
a41= 111.5943
t41=  69.858
b42=   1.0817
a42= 108.6702
t42= -169.8085
