%chk=structure.chk
NProcShared=8
#HF/6-31G* SCF=tight opt=Z-Matrix Freq

Optimization of phi -168.968

0   1
    H
    C    1      b2
    H    2      b3    1      a3
    H    2      b4    3      a4    1      t4
    C    2      b5    4      a5    1      t5
    O    5      b6    2      a6    1      t6
    N    5      b7    2      a7    1      t7
    H    7      b8    5      a8    2      t8
    C    7      b9    5      a9    2      t9
    H    9     b10    7     a10    5     t10
    C    9     b11    7     a11    5     t11
    H   11     b12    9     a12    7     t12
    H   11     b13    9     a13    7     t13
    H   11     b14    9     a14    7     t14
    C    9     b15    7     a15    5     t15
    O   15     b16    9     a16    7     t16
    N   15     b17    9     a17    7     t17
    H   17     b18   15     a18    9     t18
    C   17     b19   15     a19    9     t19
    H   19     b20   17     a20   15     t20
    C   19     b21   17     a21   15     t21
    H   21     b22   19     a22   17     t22
    H   21     b23   19     a23   17     t23
    H   21     b24   19     a24   17     t24
    C   19     b25   17     a25   15     t25
    O   25     b26   19     a26   17     t26
    N   25     b27   19     a27   17     t27
    H   27     b28   25     a28   19     t28
    C   27     b29   25     a29   19     t29
    H   29     b30   27     a30   25     t30
    C   29     b31   27     a31   25     t31
    H   31     b32   29     a32   27     t32
    H   31     b33   29     a33   27     t33
    H   31     b34   29     a34   27     t34
    C   29     b35   27     a35   25     t35
    O   35     b36   29     a36   27     t36
    N   35     b37   29     a37   27     t37
    H   37     b38   35     a38   29     t38
    C   37     b39   35     a39   29     t39
    H   39     b40   37     a40   35     t40
    H   39     b41   37     a41   35     t41
    H   39     b42   37     a42   35     t42
Variables
b2=   1.0817
b3=   1.0832
a3= 109.6541
b4=   1.0847
a4= 108.6796
t4= 117.7022
b5=   1.513
a5= 108.5259
t5= 117.6029
b6=   1.2034
a6= 121.7219
t6=  42.5886
b7=   1.3502
a7= 115.8371
t7= 221.0361
b8=   0.9952
a8= 120.7676
t8=  10.3467
b9=   1.4417
a9= 121.6425
t9= 176.9624
b10=   1.0847
a10= 108.7071
t10= -40.3772
b11=   1.5357
a11= 111.8171
t11=  79.8018
b12=   1.0843
a12= 110.4161
t12=  61.7288
b13=   1.0854
a13= 112.0379
t13= 182.5749
b14=   1.081
a14= 108.9197
t14= -57.9411
b15=   1.5274
a15= 107.7287
t15= 203.5887
b16=   1.1982
a16= 121.9797
t16=  -3.3507
b17=   1.3693
a17= 115.7731
t17= 172.5048
b18=   0.9973
a18= 114.4276
t18=   0.2871
b19=   1.4619
a19= 120.1609
t19= 220.0
b20=   1.081
a20= 107.5481
t20=  -0.9577
b21=   1.5283
a21= 110.9456
t21= 118.8211
b22=   1.0869
a22= 111.0264
t22=  59.9876
b23=   1.0804
a23= 109.7963
t23= -180.5067
b24=   1.0847
a24= 110.3431
t24= -60.3325
b25=   1.5298
a25= 113.6393
t25= 243.3163
b26=   1.206
a26= 119.4048
t26= 180.2918
b27=   1.3387
a27= 117.0528
t27=   0.0
b28=   0.9956
a28= 120.2205
t28=   4.9593
b29=   1.4427
a29= 121.975
t29= 176.4493
b30=   1.0833
a30= 108.427
t30= -37.8999
b31=   1.5344
a31= 112.0164
t31=  82.2771
b32=   1.0845
a32= 110.2527
t32=  60.9127
b33=   1.0851
a33= 111.2395
t33= 181.3701
b34=   1.082
a34= 109.2228
t34= -58.8735
b35=   1.526
a35= 107.4177
t35= 203.4527
b36=   1.2037
a36= 121.5066
t36= -24.1219
b37=   1.3452
a37= 115.584
t37= 158.2121
b38=   0.9935
a38= 118.9458
t38= -10.0872
b39=   1.4485
a39= 121.6653
t39= 179.842
b40=   1.0803
a40= 109.9282
t40= -49.7212
b41=   1.084
a41= 111.6336
t41=  70.7117
b42=   1.0816
a42= 108.657
t42= -168.968
