%chk=structure.chk
NProcShared=8
#HF/6-31G* SCF=tight opt=Z-Matrix Freq

Optimization of phi 490

0   1
    H
    C    1      b2
    H    2      b3    1      a3
    H    2      b4    3      a4    1      t4
    C    2      b5    4      a5    1      t5
    O    5      b6    2      a6    1      t6
    N    5      b7    2      a7    1      t7
    H    7      b8    5      a8    2      t8
    C    7      b9    5      a9    2      t9
    H    9     b10    7     a10    5     t10
    C    9     b11    7     a11    5     t11
    H   11     b12    9     a12    7     t12
    H   11     b13    9     a13    7     t13
    H   11     b14    9     a14    7     t14
    C    9     b15    7     a15    5     t15
    O   15     b16    9     a16    7     t16
    N   15     b17    9     a17    7     t17
    H   17     b18   15     a18    9     t18
    C   17     b19   15     a19    9     t19
    H   19     b20   17     a20   15     t20
    C   19     b21   17     a21   15     t21
    H   21     b22   19     a22   17     t22
    H   21     b23   19     a23   17     t23
    H   21     b24   19     a24   17     t24
    C   19     b25   17     a25   15     t25
    O   25     b26   19     a26   17     t26
    N   25     b27   19     a27   17     t27
    H   27     b28   25     a28   19     t28
    C   27     b29   25     a29   19     t29
    H   29     b30   27     a30   25     t30
    C   29     b31   27     a31   25     t31
    H   31     b32   29     a32   27     t32
    H   31     b33   29     a33   27     t33
    H   31     b34   29     a34   27     t34
    C   29     b35   27     a35   25     t35
    O   35     b36   29     a36   27     t36
    N   35     b37   29     a37   27     t37
    H   37     b38   35     a38   29     t38
    C   37     b39   35     a39   29     t39
    H   39     b40   37     a40   35     t40
    H   39     b41   37     a41   35     t41
    H   39     b42   37     a42   35     t42
Variables
b2=   1.0801
b3=   1.0844
a3= 110.005
b4=   1.0857
a4= 108.2317
t4= 118.142
b5=   1.5104
a5= 108.1733
t5= 118.5197
b6=   1.2063
a6= 122.2514
t6=  33.0565
b7=   1.3489
a7= 116.311
t7= 210.6567
b8=   0.9932
a8= 119.2065
t8=  9.5955
b9=   1.441
a9= 121.8461
t9= 185.1421
b10=   1.0818
a10= 109.1045
t10=  57.0659
b11=   1.5314
a11= 109.4362
t11= 176.0933
b12=   1.0869
a12= 111.2329
t12=  61.8135
b13=   1.0819
a13= 110.0683
t13= 182.0522
b14=   1.0847
a14= 110.2744
t14= -58.3679
b15=   1.5336
a15= 115.6319
t15= 300.1034
b16=   1.1885
a16= 117.8838
t16= -203.061
b17=   1.4212
a17= 118.4398
t17= -22.7262
b18=   1.0035
a18= 110.6052
t18= 257.0044
b19=   1.4711
a19= 115.3793
t19= 490.0
b20=   1.0804
a20= 106.326
t20= -41.9075
b21=   1.5263
a21= 114.9734
t21=  80.0971
b22=   1.0833
a22= 110.5158
t22=  60.411
b23=   1.0857
a23= 110.3232
t23= -180.6921
b24=   1.0808
a24= 110.1133
t24= -60.5481
b25=   1.5289
a25= 105.5953
t25= 202.1492
b26=   1.2058
a26= 121.3265
t26= -88.6978
b27=   1.3462
a27= 116.1351
t27=  90.0
b28=   0.9982
a28= 120.3837
t28=  -3.309
b29=   1.4452
a29= 120.9913
t29= -177.6252
b30=   1.082
a30= 107.6248
t30= -41.0154
b31=   1.5342
a31= 112.7709
t31=  78.7292
b32=   1.0839
a32= 110.3557
t32=  61.1369
b33=   1.0858
a33= 110.8832
t33= -178.6252
b34=   1.0817
a34= 109.3238
t34= -58.9466
b35=   1.523
a35= 108.0977
t35= -160.1038
b36=   1.2046
a36= 121.3475
t36= -39.2813
b37=   1.3446
a37= 115.8676
t37= -216.4544
b38=   0.9932
a38= 118.9021
t38= -10.8111
b39=   1.4484
a39= 121.661
t39= 179.2916
b40=   1.0804
a40= 109.9355
t40= -49.9122
b41=   1.0839
a41= 111.6058
t41=  70.4659
b42=   1.0816
a42= 108.6678
t42= -169.1951
