%chk=structure.chk
NProcShared=8
#HF/6-31G* SCF=tight opt=Z-Matrix Freq

Optimization of phi 470.0

0   1
    H
    C    1      b2
    H    2      b3    1      a3
    H    2      b4    3      a4    1      t4
    C    2      b5    4      a5    1      t5
    O    5      b6    2      a6    1      t6
    N    5      b7    2      a7    1      t7
    H    7      b8    5      a8    2      t8
    C    7      b9    5      a9    2      t9
    H    9     b10    7     a10    5     t10
    C    9     b11    7     a11    5     t11
    H   11     b12    9     a12    7     t12
    H   11     b13    9     a13    7     t13
    H   11     b14    9     a14    7     t14
    C    9     b15    7     a15    5     t15
    O   15     b16    9     a16    7     t16
    N   15     b17    9     a17    7     t17
    H   17     b18   15     a18    9     t18
    C   17     b19   15     a19    9     t19
    H   19     b20   17     a20   15     t20
    C   19     b21   17     a21   15     t21
    H   21     b22   19     a22   17     t22
    H   21     b23   19     a23   17     t23
    H   21     b24   19     a24   17     t24
    C   19     b25   17     a25   15     t25
    O   25     b26   19     a26   17     t26
    N   25     b27   19     a27   17     t27
    H   27     b28   25     a28   19     t28
    C   27     b29   25     a29   19     t29
    H   29     b30   27     a30   25     t30
    C   29     b31   27     a31   25     t31
    H   31     b32   29     a32   27     t32
    H   31     b33   29     a33   27     t33
    H   31     b34   29     a34   27     t34
    C   29     b35   27     a35   25     t35
    O   35     b36   29     a36   27     t36
    N   35     b37   29     a37   27     t37
    H   37     b38   35     a38   29     t38
    C   37     b39   35     a39   29     t39
    H   39     b40   37     a40   35     t40
    H   39     b41   37     a41   35     t41
    H   39     b42   37     a42   35     t42
Variables
b2=   1.08
b3=   1.0845
a3= 110.0491
b4=   1.0858
a4= 108.161
t4= 118.3716
b5=   1.5108
a5= 108.4461
t5= 118.5409
b6=   1.2064
a6= 122.0895
t6=  27.8667
b7=   1.3504
a7= 116.0017
t7= 205.0449
b8=   0.9941
a8= 118.4617
t8=  13.1689
b9=   1.4418
a9= 122.4602
t9= 180.6595
b10=   1.0832
a10= 107.2746
t10=  41.5782
b11=   1.53
a11= 109.6845
t11= 159.4798
b12=   1.0869
a12= 111.1068
t12=  62.0378
b13=   1.0797
a13= 110.3932
t13= 181.8514
b14=   1.0837
a14= 109.7066
t14= -57.828
b15=   1.5381
a15= 115.4553
t15= 284.3891
b16=   1.19
a16= 118.8059
t16= -168.0671
b17=   1.4241
a17= 118.4197
t17=   8.1894
b18=   1.0057
a18= 105.9343
t18= 227.0574
b19=   1.4824
a19= 114.5119
t19= 470.0
b20=   1.0809
a20= 106.7442
t20= -52.5348
b21=   1.5255
a21= 114.9723
t21=  69.9474
b22=   1.0826
a22= 110.7159
t22=  60.4802
b23=   1.0855
a23= 109.8083
t23= -180.5943
b24=   1.0813
a24= 110.8285
t24= -60.5881
b25=   1.529
a25= 105.0687
t25= 191.8242
b26=   1.2056
a26= 121.1048
t26= -88.5507
b27=   1.3451
a27= 116.117
t27=  90.0
b28=   0.9989
a28= 120.3036
t28=  -3.5469
b29=   1.446
a29= 120.9171
t29= -176.0864
b30=   1.0821
a30= 107.6945
t30= -42.7781
b31=   1.5342
a31= 112.7508
t31=  77.1
b32=   1.0838
a32= 110.2919
t32=  60.8943
b33=   1.0858
a33= 110.8202
t33= -178.9279
b34=   1.0816
a34= 109.4217
t34= -59.2389
b35=   1.523
a35= 108.0505
t35= -161.9751
b36=   1.2043
a36= 121.3008
t36= -40.676
b37=   1.3448
a37= 115.8893
t37= -217.7962
b38=   0.9932
a38= 118.9261
t38= -10.7205
b39=   1.4484
a39= 121.6417
t39= 179.1926
b40=   1.0805
a40= 109.954
t40= -50.1524
b41=   1.0839
a41= 111.6043
t41=  70.2272
b42=   1.0816
a42= 108.6629
t42= -169.4398
