%chk=structure.chk
NProcShared=8
#P hf/6-31G* Opt=(Tight,CalcFC) Freq SCF(Conver=6) Test

Optimization of phi 200

0   1
    H
    C    1      b2
    H    2      b3    1      a3
    H    2      b4    3      a4    1      t4
    C    2      b5    4      a5    1      t5
    O    5      b6    2      a6    1      t6
    N    5      b7    2      a7    1      t7
    H    7      b8    5      a8    2      t8
    C    7      b9    5      a9    2      t9
    H    9     b10    7     a10    5     t10
    C    9     b11    7     a11    5     t11
    H   11     b12    9     a12    7     t12
    H   11     b13    9     a13    7     t13
    H   11     b14    9     a14    7     t14
    C    9     b15    7     a15    5     t15
    O   15     b16    9     a16    7     t16
    N   15     b17    9     a17    7     t17
    H   17     b18   15     a18    9     t18
    C   17     b19   15     a19    9     t19
    H   19     b20   17     a20   15     t20
    C   19     b21   17     a21   15     t21
    H   21     b22   19     a22   17     t22
    H   21     b23   19     a23   17     t23
    H   21     b24   19     a24   17     t24
    C   19     b25   17     a25   15     t25
    O   25     b26   19     a26   17     t26
    N   25     b27   19     a27   17     t27
    H   27     b28   25     a28   19     t28
    C   27     b29   25     a29   19     t29
    H   29     b30   27     a30   25     t30
    C   29     b31   27     a31   25     t31
    H   31     b32   29     a32   27     t32
    H   31     b33   29     a33   27     t33
    H   31     b34   29     a34   27     t34
    C   29     b35   27     a35   25     t35
    O   35     b36   29     a36   27     t36
    N   35     b37   29     a37   27     t37
    H   37     b38   35     a38   29     t38
    C   37     b39   35     a39   29     t39
    H   39     b40   37     a40   35     t40
    H   39     b41   37     a41   35     t41
    H   39     b42   37     a42   35     t42
Variables
b2=   1.0817
b3=   1.0832
a3= 109.6498
b4=   1.0847
a4= 108.6874
t4= 117.7129
b5=   1.5131
a5= 108.5483
t5= 117.6197
b6=   1.2036
a6= 121.7138
t6=  41.9586
b7=   1.3491
a7= 115.8082
t7= 220.5884
b8=   0.9951
a8= 121.1314
t8=   7.0438
b9=   1.4415
a9= 121.8937
t9= 178.5095
b10=   1.0838
a10= 108.4019
t10= -39.2993
b11=   1.5357
a11= 112.0996
t11=  80.9101
b12=   1.0843
a12= 110.5346
t12=  62.3574
b13=   1.0852
a13= 111.7054
t13= 182.9798
b14=   1.0815
a14= 108.9608
t14= -57.4846
b15=   1.5267
a15= 107.5504
t15= 203.4875
b16=   1.2005
a16= 122.0958
t16= -11.4571
b17=   1.3594
a17= 115.3908
t17= 168.0085
b18=   0.9962
a18= 116.6685
t18=  -7.3188
b19=   1.456
a19= 121.6445
t19= 200.0
b20=   1.0808
a20= 107.6233
t20=  12.6864
b21=   1.5283
a21= 110.5299
t21= 132.2351
b22=   1.0869
a22= 111.0678
t22=  60.0539
b23=   1.0803
a23= 109.775
t23= -180.4259
b24=   1.0845
a24= 110.2603
t24= -60.2677
b25=   1.5305
a25= 113.9993
t25= 256.5688
b26=   1.2057
a26= 119.4019
t26= 179.9627
b27=   1.3391
a27= 117.1501
t27=   0.0
b28=   0.9948
a28= 120.4669
t28=   3.5823
b29=   1.4423
a29= 122.1822
t29= 175.8352
b30=   1.0833
a30= 108.417
t30= -37.9757
b31=   1.5344
a31= 112.0856
t31=  82.276
b32=   1.0845
a32= 110.2738
t32=  60.8826
b33=   1.0851
a33= 111.2583
t33= 181.3517
b34=   1.0819
a34= 109.1988
t34= -58.8866
b35=   1.5264
a35= 107.2572
t35= 203.4863
b36=   1.2041
a36= 121.4717
t36= -23.5614
b37=   1.3448
a37= 115.6279
t37= 158.7333
b38=   0.9935
a38= 118.925
t38= -10.0637
b39=   1.4486
a39= 121.6788
t39= 179.9561
b40=   1.0803
a40= 109.9305
t40= -49.8645
b41=   1.084
a41= 111.624
t41=  70.5794
b42=   1.0816
a42= 108.6499
t42= -169.108
