%chk=structure.chk
NProcShared=8
#P hf/6-31G* Opt=(Tight,CalcFC) Freq SCF(Conver=6) Test

Optimization of phi 390

0   1
    H
    C    1      b2
    H    2      b3    1      a3
    H    2      b4    3      a4    1      t4
    C    2      b5    4      a5    1      t5
    O    5      b6    2      a6    1      t6
    N    5      b7    2      a7    1      t7
    H    7      b8    5      a8    2      t8
    C    7      b9    5      a9    2      t9
    H    9     b10    7     a10    5     t10
    C    9     b11    7     a11    5     t11
    H   11     b12    9     a12    7     t12
    H   11     b13    9     a13    7     t13
    H   11     b14    9     a14    7     t14
    C    9     b15    7     a15    5     t15
    O   15     b16    9     a16    7     t16
    N   15     b17    9     a17    7     t17
    H   17     b18   15     a18    9     t18
    C   17     b19   15     a19    9     t19
    H   19     b20   17     a20   15     t20
    C   19     b21   17     a21   15     t21
    H   21     b22   19     a22   17     t22
    H   21     b23   19     a23   17     t23
    H   21     b24   19     a24   17     t24
    C   19     b25   17     a25   15     t25
    O   25     b26   19     a26   17     t26
    N   25     b27   19     a27   17     t27
    H   27     b28   25     a28   19     t28
    C   27     b29   25     a29   19     t29
    H   29     b30   27     a30   25     t30
    C   29     b31   27     a31   25     t31
    H   31     b32   29     a32   27     t32
    H   31     b33   29     a33   27     t33
    H   31     b34   29     a34   27     t34
    C   29     b35   27     a35   25     t35
    O   35     b36   29     a36   27     t36
    N   35     b37   29     a37   27     t37
    H   37     b38   35     a38   29     t38
    C   37     b39   35     a39   29     t39
    H   39     b40   37     a40   35     t40
    H   39     b41   37     a41   35     t41
    H   39     b42   37     a42   35     t42
Variables
b2=   1.0845
b3=   1.0836
a3= 108.8182
b4=   1.0813
a4= 109.5477
t4= 118.7537
b5=   1.5113
a5= 108.9752
t5= 117.2885
b6=   1.2044
a6= 122.0402
t6=  84.4526
b7=   1.3523
a7= 115.0481
t7= 265.5988
b8=   0.9953
a8= 119.8816
t8=   1.737
b9=   1.4468
a9= 123.21
t9= 172.9837
b10=   1.0768
a10= 106.7192
t10= -13.7083
b11=   1.5304
a11= 111.9874
t11= 106.4757
b12=   1.0834
a12= 110.3695
t12=  59.9308
b13=   1.0866
a13= 111.3365
t13= 180.2311
b14=   1.0831
a14= 109.4302
t14= -60.0459
b15=   1.5291
a15= 106.1043
t15= 227.0115
b16=   1.201
a16= 119.6642
t16= -50.8383
b17=   1.3626
a17= 118.9333
t17= 124.1741
b18=   0.9991
a18= 111.1987
t18= 180.1255
b19=   1.4571
a19= 126.7091
t19= 390.0
b20=   1.0828
a20= 109.9901
t20=  19.7434
b21=   1.5293
a21= 109.7344
t21= 138.4264
b22=   1.0862
a22= 110.7158
t22=  59.6482
b23=   1.0801
a23= 109.7563
t23= -180.8046
b24=   1.0843
a24= 110.262
t24= -60.4978
b25=   1.5329
a25= 114.4302
t25= 262.1288
b26=   1.2053
a26= 118.8982
t26= 178.4899
b27=   1.3377
a27= 117.2646
t27=   0.0
b28=   0.9952
a28= 120.5582
t28=  -1.8053
b29=   1.4444
a29= 122.1174
t29= 173.0547
b30=   1.0815
a30= 107.67
t30= -31.298
b31=   1.5331
a31= 112.1972
t31=  88.81
b32=   1.0843
a32= 110.3127
t32=  60.4095
b33=   1.085
a33= 110.9942
t33= 180.7861
b34=   1.0827
a34= 109.3308
t34= -59.4371
b35=   1.5259
a35= 107.4326
t35= 209.9791
b36=   1.2057
a36= 120.9206
t36= -32.3846
b37=   1.3445
a37= 115.3412
t37= 151.384
b38=   0.9943
a38= 117.4456
t38= -18.148
b39=   1.4485
a39= 121.5564
t39= 184.489
b40=   1.0794
a40= 109.3236
t40= -45.3064
b41=   1.0836
a41= 111.3381
t41=  75.3361
b42=   1.0821
a42= 108.7942
t42= -164.1278
