%chk=structure.chk
NProcShared=8
#HF/6-31G* SCF=tight opt=Z-Matrix Freq

Optimization of phi 390

0   1
    H
    C    1      b2
    H    2      b3    1      a3
    H    2      b4    3      a4    1      t4
    C    2      b5    4      a5    1      t5
    O    5      b6    2      a6    1      t6
    N    5      b7    2      a7    1      t7
    H    7      b8    5      a8    2      t8
    C    7      b9    5      a9    2      t9
    H    9     b10    7     a10    5     t10
    C    9     b11    7     a11    5     t11
    H   11     b12    9     a12    7     t12
    H   11     b13    9     a13    7     t13
    H   11     b14    9     a14    7     t14
    C    9     b15    7     a15    5     t15
    O   15     b16    9     a16    7     t16
    N   15     b17    9     a17    7     t17
    H   17     b18   15     a18    9     t18
    C   17     b19   15     a19    9     t19
    H   19     b20   17     a20   15     t20
    C   19     b21   17     a21   15     t21
    H   21     b22   19     a22   17     t22
    H   21     b23   19     a23   17     t23
    H   21     b24   19     a24   17     t24
    C   19     b25   17     a25   15     t25
    O   25     b26   19     a26   17     t26
    N   25     b27   19     a27   17     t27
    H   27     b28   25     a28   19     t28
    C   27     b29   25     a29   19     t29
    H   29     b30   27     a30   25     t30
    C   29     b31   27     a31   25     t31
    H   31     b32   29     a32   27     t32
    H   31     b33   29     a33   27     t33
    H   31     b34   29     a34   27     t34
    C   29     b35   27     a35   25     t35
    O   35     b36   29     a36   27     t36
    N   35     b37   29     a37   27     t37
    H   37     b38   35     a38   29     t38
    C   37     b39   35     a39   29     t39
    H   39     b40   37     a40   35     t40
    H   39     b41   37     a41   35     t41
    H   39     b42   37     a42   35     t42
Variables
b2=   1.082
b3=   1.0833
a3= 110.0918
b4=   1.0842
a4= 108.9639
t4= 117.9762
b5=   1.5094
a5= 108.2514
t5= 116.8244
b6=   1.2085
a6= 121.1112
t6=  48.7504
b7=   1.3491
a7= 116.7275
t7= 227.7755
b8=   0.9952
a8= 119.1116
t8=   6.3382
b9=   1.454
a9= 123.3032
t9= 178.5129
b10=   1.0765
a10= 106.4053
t10=  19.2737
b11=   1.524
a11= 110.6939
t11= 138.0501
b12=   1.0821
a12= 111.0548
t12=  61.1534
b13=   1.0841
a13= 110.4898
t13= 180.4572
b14=   1.084
a14= 109.6346
t14= -59.8029
b15=   1.5354
a15= 107.9641
t15= 259.5272
b16=   1.2011
a16= 119.7854
t16= -89.6559
b17=   1.3603
a17= 118.9152
t17=  83.2567
b18=   1.0005
a18= 111.1215
t18= 181.5824
b19=   1.4604
a19= 129.0149
t19= 390.0
b20=   1.0764
a20= 108.4907
t20= -35.0797
b21=   1.5249
a21= 112.5207
t21=  87.4629
b22=   1.082
a22= 110.7867
t22=  59.7175
b23=   1.085
a23= 110.6102
t23= -180.474
b24=   1.0854
a24= 110.0435
t24= -60.785
b25=   1.5324
a25= 105.4107
t25= 208.9206
b26=   1.2055
a26= 120.9442
t26= -87.4437
b27=   1.3426
a27= 115.6987
t27=  90.0
b28=   1.0
a28= 120.2589
t28=   0.4063
b29=   1.4471
a29= 121.232
t29= -172.7505
b30=   1.0826
a30= 108.0932
t30= -46.7749
b31=   1.5343
a31= 112.5598
t31=  73.5421
b32=   1.0837
a32= 110.0642
t32=  60.1759
b33=   1.0858
a33= 110.7172
t33= -179.7433
b34=   1.0814
a34= 109.6463
t34= -60.0403
b35=   1.5235
a35= 107.8917
t35= -166.2818
b36=   1.204
a36= 121.2307
t36= -42.4696
b37=   1.3447
a37= 115.9125
t37= -219.4692
b38=   0.993
a38= 118.9973
t38= -10.2904
b39=   1.4482
a39= 121.6099
t39= 178.8733
b40=   1.0807
a40= 110.0423
t40= -51.3199
b41=   1.0838
a41= 111.5441
t41=  69.086
b42=   1.0816
a42= 108.6497
t42= -170.6253
