%chk=structure.chk
NProcShared=8
#HF/6-31G* SCF=tight opt=Z-Matrix Freq

Optimization of phi -169.7104

0   1
    H
    C    1      b2
    H    2      b3    1      a3
    H    2      b4    3      a4    1      t4
    C    2      b5    4      a5    1      t5
    O    5      b6    2      a6    1      t6
    N    5      b7    2      a7    1      t7
    H    7      b8    5      a8    2      t8
    C    7      b9    5      a9    2      t9
    H    9     b10    7     a10    5     t10
    C    9     b11    7     a11    5     t11
    H   11     b12    9     a12    7     t12
    H   11     b13    9     a13    7     t13
    H   11     b14    9     a14    7     t14
    C    9     b15    7     a15    5     t15
    O   15     b16    9     a16    7     t16
    N   15     b17    9     a17    7     t17
    H   17     b18   15     a18    9     t18
    C   17     b19   15     a19    9     t19
    H   19     b20   17     a20   15     t20
    C   19     b21   17     a21   15     t21
    H   21     b22   19     a22   17     t22
    H   21     b23   19     a23   17     t23
    H   21     b24   19     a24   17     t24
    C   19     b25   17     a25   15     t25
    O   25     b26   19     a26   17     t26
    N   25     b27   19     a27   17     t27
    H   27     b28   25     a28   19     t28
    C   27     b29   25     a29   19     t29
    H   29     b30   27     a30   25     t30
    C   29     b31   27     a31   25     t31
    H   31     b32   29     a32   27     t32
    H   31     b33   29     a33   27     t33
    H   31     b34   29     a34   27     t34
    C   29     b35   27     a35   25     t35
    O   35     b36   29     a36   27     t36
    N   35     b37   29     a37   27     t37
    H   37     b38   35     a38   29     t38
    C   37     b39   35     a39   29     t39
    H   39     b40   37     a40   35     t40
    H   39     b41   37     a41   35     t41
    H   39     b42   37     a42   35     t42
Variables
b2=   1.0812
b3=   1.0837
a3= 110.1728
b4=   1.0851
a4= 108.6421
t4= 118.0969
b5=   1.5101
a5= 108.3695
t5= 117.2974
b6=   1.2073
a6= 121.315
t6=  38.3972
b7=   1.3502
a7= 116.5182
t7= 216.4748
b8=   0.9949
a8= 118.882
t8=   6.6768
b9=   1.4494
a9= 123.0069
t9= 179.2528
b10=   1.0806
a10= 105.9819
t10=  21.1239
b11=   1.5239
a11= 110.8413
t11= 139.6195
b12=   1.0837
a12= 111.2321
t12=  61.4067
b13=   1.0823
a13= 110.6409
t13= 180.6885
b14=   1.0838
a14= 109.5536
t14= -59.2111
b15=   1.5377
a15= 110.2042
t15= 263.2356
b16=   1.1942
a16= 121.1189
t16= -115.6748
b17=   1.3907
a17= 116.6084
t17=  54.9017
b18=   1.0038
a18= 106.942
t18= 194.6908
b19=   1.4729
a19= 120.4747
t19= 430.0
b20=   1.079
a20= 107.8567
t20= -54.4823
b21=   1.525
a21= 113.2751
t21=  68.0334
b22=   1.082
a22= 110.8754
t22=  60.1702
b23=   1.085
a23= 110.4262
t23= -180.1239
b24=   1.0854
a24= 110.4369
t24= -60.5082
b25=   1.5304
a25= 104.9751
t25= 189.6119
b26=   1.2054
a26= 120.8882
t26= -88.4768
b27=   1.3439
a27= 115.8574
t27=  90.0
b28=   1.0005
a28= 119.8285
t28=  -5.3002
b29=   1.4478
a29= 120.8935
t29= -172.4365
b30=   1.0822
a30= 107.842
t30= -47.4587
b31=   1.534
a31= 112.8152
t31=  72.806
b32=   1.0836
a32= 110.1065
t32=  60.1761
b33=   1.0859
a33= 110.6683
t33= -179.823
b34=   1.0814
a34= 109.6705
t34= -60.1233
b35=   1.5234
a35= 107.8079
t35= -166.8833
b36=   1.2039
a36= 121.1034
t36= -45.8844
b37=   1.345
a37= 116.0188
t37= -222.9715
b38=   0.993
a38= 118.937
t38= -10.6056
b39=   1.4481
a39= 121.6016
t39= 179.3394
b40=   1.0805
a40= 109.9574
t40= -50.4214
b41=   1.0839
a41= 111.6021
t41=  69.9489
b42=   1.0817
a42= 108.675
t42= -169.7104
