%chk=structure.chk
NProcShared=8
#P hf/6-31G* Opt=(Tight,CalcFC) Freq SCF(Conver=6) Test

Optimization of phi 210

0   1
    H
    C    1      b2
    H    2      b3    1      a3
    H    2      b4    3      a4    1      t4
    C    2      b5    4      a5    1      t5
    O    5      b6    2      a6    1      t6
    N    5      b7    2      a7    1      t7
    H    7      b8    5      a8    2      t8
    C    7      b9    5      a9    2      t9
    H    9     b10    7     a10    5     t10
    C    9     b11    7     a11    5     t11
    H   11     b12    9     a12    7     t12
    H   11     b13    9     a13    7     t13
    H   11     b14    9     a14    7     t14
    C    9     b15    7     a15    5     t15
    O   15     b16    9     a16    7     t16
    N   15     b17    9     a17    7     t17
    H   17     b18   15     a18    9     t18
    C   17     b19   15     a19    9     t19
    H   19     b20   17     a20   15     t20
    C   19     b21   17     a21   15     t21
    H   21     b22   19     a22   17     t22
    H   21     b23   19     a23   17     t23
    H   21     b24   19     a24   17     t24
    C   19     b25   17     a25   15     t25
    O   25     b26   19     a26   17     t26
    N   25     b27   19     a27   17     t27
    H   27     b28   25     a28   19     t28
    C   27     b29   25     a29   19     t29
    H   29     b30   27     a30   25     t30
    C   29     b31   27     a31   25     t31
    H   31     b32   29     a32   27     t32
    H   31     b33   29     a33   27     t33
    H   31     b34   29     a34   27     t34
    C   29     b35   27     a35   25     t35
    O   35     b36   29     a36   27     t36
    N   35     b37   29     a37   27     t37
    H   37     b38   35     a38   29     t38
    C   37     b39   35     a39   29     t39
    H   39     b40   37     a40   35     t40
    H   39     b41   37     a41   35     t41
    H   39     b42   37     a42   35     t42
Variables
b2=   1.0818
b3=   1.0832
a3= 109.6459
b4=   1.0847
a4= 108.6947
t4= 117.6985
b5=   1.513
a5= 108.5314
t5= 117.5971
b6=   1.2035
a6= 121.7095
t6=  42.6943
b7=   1.3496
a7= 115.833
t7= 221.2356
b8=   0.9951
a8= 120.9487
t8=   8.9441
b9=   1.4415
a9= 121.7502
t9= 177.5733
b10=   1.0843
a10= 108.5615
t10= -39.8553
b11=   1.5356
a11= 111.9506
t11=  80.3381
b12=   1.0843
a12= 110.447
t12=  61.8626
b13=   1.0853
a13= 111.875
t13= 182.5881
b14=   1.0812
a14= 108.9468
t14= -57.8719
b15=   1.5271
a15= 107.6346
t15= 203.5659
b16=   1.1994
a16= 122.0966
t16=  -6.8132
b17=   1.3639
a17= 115.5529
t17= 170.7751
b18=   0.9967
a18= 115.5669
t18=  -4.049
b19=   1.459
a19= 120.8892
t19= 210.0
b20=   1.081
a20= 107.6772
t20=   7.2474
b21=   1.5283
a21= 110.6409
t21= 126.9259
b22=   1.0869
a22= 111.0459
t22=  59.9671
b23=   1.0803
a23= 109.7654
t23= -180.5263
b24=   1.0846
a24= 110.3114
t24= -60.3769
b25=   1.5301
a25= 113.8559
t25= 251.2506
b26=   1.2059
a26= 119.3875
t26= 180.0727
b27=   1.3388
a27= 117.1105
t27=   0.0
b28=   0.9952
a28= 120.3636
t28=   3.8691
b29=   1.4425
a29= 122.083
t29= 176.2618
b30=   1.0833
a30= 108.4077
t30= -38.1371
b31=   1.5344
a31= 112.0678
t31=  82.0825
b32=   1.0845
a32= 110.2599
t32=  60.9047
b33=   1.0851
a33= 111.2391
t33= 181.3599
b34=   1.0819
a34= 109.2165
t34= -58.8807
b35=   1.5261
a35= 107.3405
t35= 203.2519
b36=   1.2039
a36= 121.482
t36= -24.1417
b37=   1.345
a37= 115.6088
t37= 158.1939
b38=   0.9935
a38= 118.9372
t38= -10.0737
b39=   1.4485
a39= 121.6736
t39= 179.8544
b40=   1.0803
a40= 109.9302
t40= -49.756
b41=   1.084
a41= 111.6283
t41=  70.6814
b42=   1.0816
a42= 108.6552
t42= -169.0027
