%chk=structure.chk
NProcShared=8
#HF/6-31G* SCF=tight opt=Z-Matrix Freq

Optimization of phi 270.0

0   1
    H
    C    1      b2
    H    2      b3    1      a3
    H    2      b4    3      a4    1      t4
    C    2      b5    4      a5    1      t5
    O    5      b6    2      a6    1      t6
    N    5      b7    2      a7    1      t7
    H    7      b8    5      a8    2      t8
    C    7      b9    5      a9    2      t9
    H    9     b10    7     a10    5     t10
    C    9     b11    7     a11    5     t11
    H   11     b12    9     a12    7     t12
    H   11     b13    9     a13    7     t13
    H   11     b14    9     a14    7     t14
    C    9     b15    7     a15    5     t15
    O   15     b16    9     a16    7     t16
    N   15     b17    9     a17    7     t17
    H   17     b18   15     a18    9     t18
    C   17     b19   15     a19    9     t19
    H   19     b20   17     a20   15     t20
    C   19     b21   17     a21   15     t21
    H   21     b22   19     a22   17     t22
    H   21     b23   19     a23   17     t23
    H   21     b24   19     a24   17     t24
    C   19     b25   17     a25   15     t25
    O   25     b26   19     a26   17     t26
    N   25     b27   19     a27   17     t27
    H   27     b28   25     a28   19     t28
    C   27     b29   25     a29   19     t29
    H   29     b30   27     a30   25     t30
    C   29     b31   27     a31   25     t31
    H   31     b32   29     a32   27     t32
    H   31     b33   29     a33   27     t33
    H   31     b34   29     a34   27     t34
    C   29     b35   27     a35   25     t35
    O   35     b36   29     a36   27     t36
    N   35     b37   29     a37   27     t37
    H   37     b38   35     a38   29     t38
    C   37     b39   35     a39   29     t39
    H   39     b40   37     a40   35     t40
    H   39     b41   37     a41   35     t41
    H   39     b42   37     a42   35     t42
Variables
b2=   1.0855
b3=   1.0834
a3= 108.4852
b4=   1.0809
a4= 109.7711
t4= 118.015
b5=   1.5129
a5= 108.8537
t5= 118.0788
b6=   1.2027
a6= 122.07
t6=  85.619
b7=   1.3526
a7= 115.5263
t7= 266.5644
b8=   0.9953
a8= 119.9596
t8=  10.0073
b9=   1.4435
a9= 121.4084
t9= 172.1139
b10=   1.0835
a10= 108.8534
t10= -39.8493
b11=   1.5356
a11= 111.5021
t11=  79.626
b12=   1.0849
a12= 110.7076
t12=  63.454
b13=   1.0851
a13= 112.0145
t13= 185.1132
b14=   1.0806
a14= 108.7592
t14= -56.0008
b15=   1.5283
a15= 108.2638
t15= 204.5431
b16=   1.1906
a16= 120.9196
t16=   3.2019
b17=   1.4091
a17= 118.5335
t17= 176.0121
b18=   1.0008
a18= 111.7542
t18=  36.1241
b19=   1.4748
a19= 117.1435
t19= 270.0
b20=   1.0832
a20= 107.0302
t20= -32.6461
b21=   1.5246
a21= 114.7821
t21=  89.9069
b22=   1.0826
a22= 110.6104
t22=  58.6964
b23=   1.0844
a23= 110.0051
t23= -182.6386
b24=   1.0832
a24= 111.4308
t24= -63.0575
b25=   1.5304
a25= 105.2469
t25= 211.5545
b26=   1.2042
a26= 121.0793
t26= -89.1039
b27=   1.3429
a27= 115.4745
t27=  90.0
b28=   0.9968
a28= 120.5907
t28=  -6.3894
b29=   1.4439
a29= 122.0917
t29= -173.7206
b30=   1.0822
a30= 107.799
t30= -41.9973
b31=   1.5347
a31= 112.4162
t31=  78.3416
b32=   1.0842
a32= 110.2543
t32=  60.4638
b33=   1.0853
a33= 111.1087
t33= -179.1249
b34=   1.0821
a34= 109.3903
t34= -59.3025
b35=   1.5254
a35= 107.3064
t35= -160.571
b36=   1.2031
a36= 121.3126
t36= -28.2438
b37=   1.3455
a37= 115.6919
t37= -205.6624
b38=   0.9934
a38= 119.0248
t38=  -9.6508
b39=   1.4484
a39= 121.6968
t39= 178.9529
b40=   1.0803
a40= 109.9238
t40= -48.8475
b41=   1.084
a41= 111.6319
t41=  71.5576
b42=   1.0817
a42= 108.6825
t42= -168.1352
