%chk=structure.chk
NProcShared=8
#HF/6-31G* SCF=tight opt=Z-Matrix Freq

Optimization of phi -162.0625

0   1
    H
    C    1      b2
    H    2      b3    1      a3
    H    2      b4    3      a4    1      t4
    C    2      b5    4      a5    1      t5
    O    5      b6    2      a6    1      t6
    N    5      b7    2      a7    1      t7
    H    7      b8    5      a8    2      t8
    C    7      b9    5      a9    2      t9
    H    9     b10    7     a10    5     t10
    C    9     b11    7     a11    5     t11
    H   11     b12    9     a12    7     t12
    H   11     b13    9     a13    7     t13
    H   11     b14    9     a14    7     t14
    C    9     b15    7     a15    5     t15
    O   15     b16    9     a16    7     t16
    N   15     b17    9     a17    7     t17
    H   17     b18   15     a18    9     t18
    C   17     b19   15     a19    9     t19
    H   19     b20   17     a20   15     t20
    C   19     b21   17     a21   15     t21
    H   21     b22   19     a22   17     t22
    H   21     b23   19     a23   17     t23
    H   21     b24   19     a24   17     t24
    C   19     b25   17     a25   15     t25
    O   25     b26   19     a26   17     t26
    N   25     b27   19     a27   17     t27
    H   27     b28   25     a28   19     t28
    C   27     b29   25     a29   19     t29
    H   29     b30   27     a30   25     t30
    C   29     b31   27     a31   25     t31
    H   31     b32   29     a32   27     t32
    H   31     b33   29     a33   27     t33
    H   31     b34   29     a34   27     t34
    C   29     b35   27     a35   25     t35
    O   35     b36   29     a36   27     t36
    N   35     b37   29     a37   27     t37
    H   37     b38   35     a38   29     t38
    C   37     b39   35     a39   29     t39
    H   39     b40   37     a40   35     t40
    H   39     b41   37     a41   35     t41
    H   39     b42   37     a42   35     t42
Variables
b2=   1.0848
b3=   1.0835
a3= 108.7432
b4=   1.0811
a4= 109.6165
t4= 118.8844
b5=   1.5114
a5= 109.0551
t5= 117.605
b6=   1.2037
a6= 122.1262
t6=  88.8977
b7=   1.3559
a7= 114.7258
t7= 269.229
b8=   0.9964
a8= 118.2789
t8=  12.0408
b9=   1.4438
a9= 122.6188
t9= 168.0718
b10=   1.0773
a10= 106.9047
t10=   0.4728
b11=   1.5333
a11= 111.5488
t11= 120.4082
b12=   1.0841
a12= 110.3407
t12=  59.3496
b13=   1.0856
a13= 111.5111
t13= 179.6904
b14=   1.083
a14= 109.3884
t14= -60.2002
b15=   1.5285
a15= 107.7446
t15= 240.2699
b16=   1.2024
a16= 120.0581
t16= -34.0283
b17=   1.3566
a17= 118.9447
t17= 149.1605
b18=   0.9982
a18= 112.728
t18= 177.366
b19=   1.4501
a19= 129.5641
t19= 350.0
b20=   1.0823
a20= 109.4152
t20=  43.0871
b21=   1.5296
a21= 109.0471
t21= 160.8024
b22=   1.0864
a22= 110.7927
t22=  61.1101
b23=   1.0799
a23= 109.845
t23= -179.2823
b24=   1.0838
a24= 110.0463
t24= -58.8707
b25=   1.5341
a25= 116.134
t25= 285.1251
b26=   1.2048
a26= 118.4706
t26= 178.4727
b27=   1.3397
a27= 118.1079
t27=   0.0
b28=   0.9947
a28= 121.5484
t28=  -1.356
b29=   1.4451
a29= 121.6742
t29= 171.9495
b30=   1.0811
a30= 107.5066
t30= -28.3942
b31=   1.5331
a31= 112.0783
t31=  91.6102
b32=   1.0845
a32= 110.3846
t32=  60.5853
b33=   1.0848
a33= 111.0754
t33= 181.0004
b34=   1.0828
a34= 109.2977
t34= -59.2065
b35=   1.5258
a35= 107.6196
t35= 213.0682
b36=   1.2054
a36= 121.0438
t36= -29.4373
b37=   1.3448
a37= 115.1989
t37= 154.2889
b38=   0.9944
a38= 117.5334
t38= -17.7627
b39=   1.4481
a39= 121.7506
t39= 183.8085
b40=   1.0793
a40= 109.2655
t40= -43.1969
b41=   1.0838
a41= 111.4594
t41=  77.4003
b42=   1.0821
a42= 108.859
t42= -162.0625
