%chk=structure.chk
NProcShared=8
#HF/6-31G* SCF=tight opt=Z-Matrix Freq

Optimization of phi -164.9415

0   1
    H
    C    1      b2
    H    2      b3    1      a3
    H    2      b4    3      a4    1      t4
    C    2      b5    4      a5    1      t5
    O    5      b6    2      a6    1      t6
    N    5      b7    2      a7    1      t7
    H    7      b8    5      a8    2      t8
    C    7      b9    5      a9    2      t9
    H    9     b10    7     a10    5     t10
    C    9     b11    7     a11    5     t11
    H   11     b12    9     a12    7     t12
    H   11     b13    9     a13    7     t13
    H   11     b14    9     a14    7     t14
    C    9     b15    7     a15    5     t15
    O   15     b16    9     a16    7     t16
    N   15     b17    9     a17    7     t17
    H   17     b18   15     a18    9     t18
    C   17     b19   15     a19    9     t19
    H   19     b20   17     a20   15     t20
    C   19     b21   17     a21   15     t21
    H   21     b22   19     a22   17     t22
    H   21     b23   19     a23   17     t23
    H   21     b24   19     a24   17     t24
    C   19     b25   17     a25   15     t25
    O   25     b26   19     a26   17     t26
    N   25     b27   19     a27   17     t27
    H   27     b28   25     a28   19     t28
    C   27     b29   25     a29   19     t29
    H   29     b30   27     a30   25     t30
    C   29     b31   27     a31   25     t31
    H   31     b32   29     a32   27     t32
    H   31     b33   29     a33   27     t33
    H   31     b34   29     a34   27     t34
    C   29     b35   27     a35   25     t35
    O   35     b36   29     a36   27     t36
    N   35     b37   29     a37   27     t37
    H   37     b38   35     a38   29     t38
    C   37     b39   35     a39   29     t39
    H   39     b40   37     a40   35     t40
    H   39     b41   37     a41   35     t41
    H   39     b42   37     a42   35     t42
Variables
b2=   1.084
b3=   1.0836
a3= 108.9322
b4=   1.0815
a4= 109.4937
t4= 118.739
b5=   1.511
a5= 108.8855
t5= 117.0847
b6=   1.2037
a6= 122.0516
t6=  81.7967
b7=   1.3541
a7= 115.2001
t7= 263.374
b8=   0.9951
a8= 119.745
t8=  -4.808
b9=   1.4488
a9= 123.2516
t9= 177.3626
b10=   1.0773
a10= 106.4313
t10= -19.2399
b11=   1.5272
a11= 112.3628
t11= 101.1345
b12=   1.0829
a12= 110.5468
t12=  60.6111
b13=   1.0865
a13= 111.0392
t13= 180.7481
b14=   1.0833
a14= 109.513
t14= -59.6857
b15=   1.5299
a15= 105.1256
t15= 222.4619
b16=   1.1982
a16= 119.9129
t16= -64.9485
b17=   1.3733
a17= 117.9537
t17= 105.753
b18=   1.0003
a18= 109.3455
t18= 187.1579
b19=   1.4633
a19= 123.4487
t19= 410.0
b20=   1.0834
a20= 109.875
t20=   7.6156
b21=   1.529
a21= 110.3042
t21= 126.6427
b22=   1.0862
a22= 110.6863
t22=  59.4624
b23=   1.0803
a23= 109.7817
t23= -181.0121
b24=   1.0844
a24= 110.302
t24= -60.6722
b25=   1.5319
a25= 113.7642
t25= 250.5244
b26=   1.2058
a26= 119.1125
t26= 178.6683
b27=   1.3371
a27= 116.9669
t27=   0.0
b28=   0.9955
a28= 120.2004
t28=  -1.5591
b29=   1.4443
a29= 122.139
t29= 174.2335
b30=   1.0817
a30= 107.7659
t30= -33.6723
b31=   1.5331
a31= 112.252
t31=  86.4762
b32=   1.0842
a32= 110.2588
t32=  60.3543
b33=   1.0851
a33= 110.9309
t33= 180.6973
b34=   1.0826
a34= 109.3518
t34= -59.5578
b35=   1.5254
a35= 107.3874
t35= 207.4315
b36=   1.2059
a36= 120.8376
t36= -35.0939
b37=   1.3442
a37= 115.4761
t37= 148.6351
b38=   0.9942
a38= 117.5079
t38= -17.8585
b39=   1.4485
a39= 121.5152
t39= 184.4668
b40=   1.0795
a40= 109.3641
t40= -46.1136
b41=   1.0836
a41= 111.3226
t41=  74.5272
b42=   1.0821
a42= 108.7764
t42= -164.9415
