%chk=structure.chk
NProcShared=8
#P hf/6-31G* Opt=(Tight,CalcFC) Freq SCF(Conver=6) Test

Optimization of phi 260

0   1
    H
    C    1      b2
    H    2      b3    1      a3
    H    2      b4    3      a4    1      t4
    C    2      b5    4      a5    1      t5
    O    5      b6    2      a6    1      t6
    N    5      b7    2      a7    1      t7
    H    7      b8    5      a8    2      t8
    C    7      b9    5      a9    2      t9
    H    9     b10    7     a10    5     t10
    C    9     b11    7     a11    5     t11
    H   11     b12    9     a12    7     t12
    H   11     b13    9     a13    7     t13
    H   11     b14    9     a14    7     t14
    C    9     b15    7     a15    5     t15
    O   15     b16    9     a16    7     t16
    N   15     b17    9     a17    7     t17
    H   17     b18   15     a18    9     t18
    C   17     b19   15     a19    9     t19
    H   19     b20   17     a20   15     t20
    C   19     b21   17     a21   15     t21
    H   21     b22   19     a22   17     t22
    H   21     b23   19     a23   17     t23
    H   21     b24   19     a24   17     t24
    C   19     b25   17     a25   15     t25
    O   25     b26   19     a26   17     t26
    N   25     b27   19     a27   17     t27
    H   27     b28   25     a28   19     t28
    C   27     b29   25     a29   19     t29
    H   29     b30   27     a30   25     t30
    C   29     b31   27     a31   25     t31
    H   31     b32   29     a32   27     t32
    H   31     b33   29     a33   27     t33
    H   31     b34   29     a34   27     t34
    C   29     b35   27     a35   25     t35
    O   35     b36   29     a36   27     t36
    N   35     b37   29     a37   27     t37
    H   37     b38   35     a38   29     t38
    C   37     b39   35     a39   29     t39
    H   39     b40   37     a40   35     t40
    H   39     b41   37     a41   35     t41
    H   39     b42   37     a42   35     t42
Variables
b2=   1.0815
b3=   1.0832
a3= 109.681
b4=   1.0848
a4= 108.6205
t4= 117.7522
b5=   1.5128
a5= 108.5468
t5= 117.6623
b6=   1.203
a6= 121.8107
t6=  40.7699
b7=   1.3514
a7= 115.8294
t7= 219.0982
b8=   0.995
a8= 120.5316
t8=  10.9694
b9=   1.4419
a9= 121.5652
t9= 176.7453
b10=   1.0856
a10= 108.9515
t10= -41.1449
b11=   1.5364
a11= 111.6178
t11=  78.7698
b12=   1.0845
a12= 110.5292
t12=  62.1755
b13=   1.0856
a13= 112.2206
t13= 183.553
b14=   1.0807
a14= 108.7886
t14= -57.3621
b15=   1.5266
a15= 108.2192
t15= 203.3003
b16=   1.1912
a16= 121.6218
t16=  -1.131
b17=   1.4008
a17= 117.0078
t17= 171.0818
b18=   0.9986
a18= 111.2287
t18=  25.5448
b19=   1.4741
a19= 115.529
t19= 260.0
b20=   1.0849
a20= 110.076
t20=  12.2037
b21=   1.5278
a21= 110.3778
t21= 132.2898
b22=   1.0861
a22= 110.6312
t22=  58.0246
b23=   1.0801
a23= 109.7302
t23= -182.3936
b24=   1.0855
a24= 110.6114
t24= -62.3399
b25=   1.5308
a25= 113.1124
t25= 255.2372
b26=   1.2072
a26= 118.9513
t26= 179.7221
b27=   1.3351
a27= 117.1939
t27=   0.0
b28=   0.9965
a28= 120.0077
t28=   2.1266
b29=   1.4431
a29= 121.8449
t29= 177.855
b30=   1.0831
a30= 108.3081
t30= -39.8929
b31=   1.5345
a31= 112.1516
t31=  80.2989
b32=   1.0843
a32= 110.1525
t32=  60.64
b33=   1.0853
a33= 111.0545
t33= 180.9763
b34=   1.082
a34= 109.3401
t34= -59.2593
b35=   1.5251
a35= 107.5715
t35= 201.0752
b36=   1.2026
a36= 121.4532
t36= -29.7341
b37=   1.3465
a37= 115.5587
t37= 153.0993
b38=   0.9934
a38= 118.8953
t38= -11.3249
b39=   1.4481
a39= 121.5755
t39= 179.7005
b40=   1.0803
a40= 109.8693
t40= -49.3698
b41=   1.0841
a41= 111.6832
t41=  71.0161
b42=   1.0818
a42= 108.6916
t42= -168.5978
