%chk=structure.chk
NProcShared=8
#HF/6-31G* SCF=tight opt=Z-Matrix Freq

Optimization of phi -166.4999

0   1
    H
    C    1      b2
    H    2      b3    1      a3
    H    2      b4    3      a4    1      t4
    C    2      b5    4      a5    1      t5
    O    5      b6    2      a6    1      t6
    N    5      b7    2      a7    1      t7
    H    7      b8    5      a8    2      t8
    C    7      b9    5      a9    2      t9
    H    9     b10    7     a10    5     t10
    C    9     b11    7     a11    5     t11
    H   11     b12    9     a12    7     t12
    H   11     b13    9     a13    7     t13
    H   11     b14    9     a14    7     t14
    C    9     b15    7     a15    5     t15
    O   15     b16    9     a16    7     t16
    N   15     b17    9     a17    7     t17
    H   17     b18   15     a18    9     t18
    C   17     b19   15     a19    9     t19
    H   19     b20   17     a20   15     t20
    C   19     b21   17     a21   15     t21
    H   21     b22   19     a22   17     t22
    H   21     b23   19     a23   17     t23
    H   21     b24   19     a24   17     t24
    C   19     b25   17     a25   15     t25
    O   25     b26   19     a26   17     t26
    N   25     b27   19     a27   17     t27
    H   27     b28   25     a28   19     t28
    C   27     b29   25     a29   19     t29
    H   29     b30   27     a30   25     t30
    C   29     b31   27     a31   25     t31
    H   31     b32   29     a32   27     t32
    H   31     b33   29     a33   27     t33
    H   31     b34   29     a34   27     t34
    C   29     b35   27     a35   25     t35
    O   35     b36   29     a36   27     t36
    N   35     b37   29     a37   27     t37
    H   37     b38   35     a38   29     t38
    C   37     b39   35     a39   29     t39
    H   39     b40   37     a40   35     t40
    H   39     b41   37     a41   35     t41
    H   39     b42   37     a42   35     t42
Variables
b2=   1.0835
b3=   1.0854
a3= 108.4574
b4=   1.0809
a4= 108.1957
t4= 119.0338
b5=   1.5133
a5= 108.7871
t5= 123.7671
b6=   1.2036
a6= 121.974
t6= 153.3676
b7=   1.349
a7= 115.4445
t7= 331.7443
b8=   0.9953
a8= 121.193
t8=   4.7153
b9=   1.4423
a9= 122.137
t9= 179.6676
b10=   1.0802
a10= 107.7194
t10= -34.851
b11=   1.5355
a11= 112.0149
t11=  85.2353
b12=   1.0843
a12= 110.1212
t12=  59.9313
b13=   1.0849
a13= 111.7656
t13= 180.5438
b14=   1.0821
a14= 108.9442
t14= -59.5371
b15=   1.5247
a15= 107.2219
t15= 205.6185
b16=   1.2018
a16= 120.6865
t16= -25.4838
b17=   1.3594
a17= 118.406
t17= 159.2089
b18=   0.9988
a18= 112.17
t18= 175.8325
b19=   1.45
a19= 129.2899
t19= 340.0
b20=   1.081
a20= 109.2814
t20=  41.1273
b21=   1.5301
a21= 109.1734
t21= 158.9077
b22=   1.0866
a22= 110.8242
t22=  61.032
b23=   1.08
a23= 109.9625
t23= -179.2904
b24=   1.0835
a24= 109.915
t24= -58.7703
b25=   1.5342
a25= 115.9233
t25= 282.9909
b26=   1.2048
a26= 118.7471
t26= 178.9886
b27=   1.3407
a27= 118.0846
t27=   0.0
b28=   0.9954
a28= 121.9499
t28=  -1.877
b29=   1.4454
a29= 121.6299
t29= 177.2381
b30=   1.0822
a30= 107.9396
t30= -37.3173
b31=   1.5341
a31= 112.1498
t31=  82.8344
b32=   1.0845
a32= 110.3115
t32=  60.8024
b33=   1.0849
a33= 111.1199
t33= 181.1562
b34=   1.0821
a34= 109.3182
t34= -59.1111
b35=   1.5257
a35= 107.2944
t35= 204.0891
b36=   1.2034
a36= 121.1926
t36= -25.6466
b37=   1.3448
a37= 115.6362
t37= 156.8853
b38=   0.9937
a38= 118.8234
t38= -11.3916
b39=   1.4487
a39= 121.6988
t39= 180.1141
b40=   1.0799
a40= 109.7276
t40= -47.3007
b41=   1.0842
a41= 111.7011
t41=  73.1204
b42=   1.0816
a42= 108.7019
t42= -166.4999
