%chk=structure.chk
NProcShared=8
#HF/6-31G* SCF=tight opt=Z-Matrix Freq

Optimization of phi -168.8613

0   1
    H
    C    1      b2
    H    2      b3    1      a3
    H    2      b4    3      a4    1      t4
    C    2      b5    4      a5    1      t5
    O    5      b6    2      a6    1      t6
    N    5      b7    2      a7    1      t7
    H    7      b8    5      a8    2      t8
    C    7      b9    5      a9    2      t9
    H    9     b10    7     a10    5     t10
    C    9     b11    7     a11    5     t11
    H   11     b12    9     a12    7     t12
    H   11     b13    9     a13    7     t13
    H   11     b14    9     a14    7     t14
    C    9     b15    7     a15    5     t15
    O   15     b16    9     a16    7     t16
    N   15     b17    9     a17    7     t17
    H   17     b18   15     a18    9     t18
    C   17     b19   15     a19    9     t19
    H   19     b20   17     a20   15     t20
    C   19     b21   17     a21   15     t21
    H   21     b22   19     a22   17     t22
    H   21     b23   19     a23   17     t23
    H   21     b24   19     a24   17     t24
    C   19     b25   17     a25   15     t25
    O   25     b26   19     a26   17     t26
    N   25     b27   19     a27   17     t27
    H   27     b28   25     a28   19     t28
    C   27     b29   25     a29   19     t29
    H   29     b30   27     a30   25     t30
    C   29     b31   27     a31   25     t31
    H   31     b32   29     a32   27     t32
    H   31     b33   29     a33   27     t33
    H   31     b34   29     a34   27     t34
    C   29     b35   27     a35   25     t35
    O   35     b36   29     a36   27     t36
    N   35     b37   29     a37   27     t37
    H   37     b38   35     a38   29     t38
    C   37     b39   35     a39   29     t39
    H   39     b40   37     a40   35     t40
    H   39     b41   37     a41   35     t41
    H   39     b42   37     a42   35     t42
Variables
b2=   1.0827
b3=   1.0836
a3= 109.5465
b4=   1.0831
a4= 109.1394
t4= 118.1482
b5=   1.5112
a5= 108.3969
t5= 116.8285
b6=   1.2017
a6= 121.6142
t6=  63.5582
b7=   1.3583
a7= 115.8617
t7= 243.3526
b8=   0.9945
a8= 118.9383
t8=   0.5836
b9=   1.4462
a9= 123.0484
t9= 179.072
b10=   1.0813
a10= 105.6449
t10=  10.32
b11=   1.5235
a11= 111.6575
t11= 130.0079
b12=   1.0841
a12= 111.2222
t12=  60.9251
b13=   1.0832
a13= 110.7561
t13= 180.3977
b14=   1.0836
a14= 109.6162
t14= -59.548
b15=   1.5303
a15= 108.9773
t15= 254.1927
b16=   1.1897
a16= 122.4711
t16= -112.7753
b17=   1.4192
a17= 114.6193
t17=  59.7686
b18=   1.0046
a18= 105.9062
t18= 218.2561
b19=   1.4739
a19= 114.4758
t19= 460.0
b20=   1.0855
a20= 107.8154
t20= -37.2848
b21=   1.5288
a21= 113.3986
t21=  83.1302
b22=   1.0868
a22= 110.5199
t22=  61.7937
b23=   1.081
a23= 110.0218
t23= -178.8086
b24=   1.0831
a24= 110.3703
t24= -57.9189
b25=   1.5309
a25= 111.7267
t25= 208.8045
b26=   1.2059
a26= 119.652
t26= 180.4366
b27=   1.3386
a27= 116.5182
t27=   0.0
b28=   0.9954
a28= 118.7082
t28=  9.1625
b29=   1.4436
a29= 121.8962
t29= 173.3429
b30=   1.0832
a30= 108.5172
t30= -36.3501
b31=   1.5333
a31= 112.0625
t31=  83.9242
b32=   1.084
a32= 110.14
t32=  60.402
b33=   1.0855
a33= 110.9919
t33= 180.8345
b34=   1.0821
a34= 109.2648
t34= -59.4369
b35=   1.5249
a35= 107.4278
t35= 204.5279
b36=   1.2054
a36= 121.2802
t36= -34.4288
b37=   1.3442
a37= 115.7039
t37= 148.772
b38=   0.9935
a38= 118.4757
t38= -13.6727
b39=   1.448
a39= 121.5518
t39= 181.3401
b40=   1.0802
a40= 109.7623
t40= -49.7674
b41=   1.0843
a41= 111.6159
t41=  70.7562
b42=   1.0817
a42= 108.6991
t42= -168.8613
