%chk=structure.chk
NProcShared=8
#P hf/6-31G* Opt=(Tight,CalcFC) Freq SCF(Conver=6) Test

Optimization of phi 300

0   1
    H
    C    1      b2
    H    2      b3    1      a3
    H    2      b4    3      a4    1      t4
    C    2      b5    4      a5    1      t5
    O    5      b6    2      a6    1      t6
    N    5      b7    2      a7    1      t7
    H    7      b8    5      a8    2      t8
    C    7      b9    5      a9    2      t9
    H    9     b10    7     a10    5     t10
    C    9     b11    7     a11    5     t11
    H   11     b12    9     a12    7     t12
    H   11     b13    9     a13    7     t13
    H   11     b14    9     a14    7     t14
    C    9     b15    7     a15    5     t15
    O   15     b16    9     a16    7     t16
    N   15     b17    9     a17    7     t17
    H   17     b18   15     a18    9     t18
    C   17     b19   15     a19    9     t19
    H   19     b20   17     a20   15     t20
    C   19     b21   17     a21   15     t21
    H   21     b22   19     a22   17     t22
    H   21     b23   19     a23   17     t23
    H   21     b24   19     a24   17     t24
    C   19     b25   17     a25   15     t25
    O   25     b26   19     a26   17     t26
    N   25     b27   19     a27   17     t27
    H   27     b28   25     a28   19     t28
    C   27     b29   25     a29   19     t29
    H   29     b30   27     a30   25     t30
    C   29     b31   27     a31   25     t31
    H   31     b32   29     a32   27     t32
    H   31     b33   29     a33   27     t33
    H   31     b34   29     a34   27     t34
    C   29     b35   27     a35   25     t35
    O   35     b36   29     a36   27     t36
    N   35     b37   29     a37   27     t37
    H   37     b38   35     a38   29     t38
    C   37     b39   35     a39   29     t39
    H   39     b40   37     a40   35     t40
    H   39     b41   37     a41   35     t41
    H   39     b42   37     a42   35     t42
Variables
b2=   1.0834
b3=   1.0852
a3= 108.5841
b4=   1.0813
a4= 108.0034
t4= 118.9349
b5=   1.5132
a5= 108.7344
t5= 124.0644
b6=   1.2033
a6= 121.8358
t6= 158.9666
b7=   1.3495
a7= 115.6428
t7= 337.703
b8=   0.9951
a8= 121.079
t8=   2.0094
b9=   1.4424
a9= 122.1466
t9= 181.177
b10=   1.0808
a10= 107.8821
t10= -36.8586
b11=   1.5356
a11= 112.4925
t11=  82.8581
b12=   1.0846
a12= 110.3882
t12=  60.758
b13=   1.0835
a13= 111.1433
t13= 181.5252
b14=   1.0821
a14= 108.739
t14= -58.6918
b15=   1.5223
a15= 107.7658
t15= 203.1732
b16=   1.1982
a16= 120.9337
t16= -24.8811
b17=   1.3798
a17= 117.2587
t17= 165.3242
b18=   1.0019
a18= 108.8005
t18= 164.1891
b19=   1.4575
a19= 124.374
t19= 300.0
b20=   1.0818
a20= 108.6846
t20=  49.8393
b21=   1.5298
a21= 108.9494
t21= 167.3267
b22=   1.0866
a22= 110.7645
t22=  61.5669
b23=   1.0801
a23= 110.202
t23= -178.5818
b24=   1.083
a24= 109.6707
t24= -57.8838
b25=   1.5348
a25= 116.6258
t25= 291.5686
b26=   1.205
a26= 118.3
t26= 179.8754
b27=   1.3435
a27= 119.0486
t27=   0.0
b28=   0.9974
a28= 123.0089
t28=   2.0984
b29=   1.4479
a29= 120.5896
t29= 179.6564
b30=   1.0819
a30= 107.9275
t30= -37.5651
b31=   1.5342
a31= 111.9486
t31=  82.3687
b32=   1.0844
a32= 110.2611
t32=  60.9341
b33=   1.085
a33= 111.0811
t33= 181.2413
b34=   1.0821
a34= 109.3817
t34= -59.05
b35=   1.5246
a35= 107.8314
t35= 203.5677
b36=   1.2022
a36= 121.3702
t36= -26.8329
b37=   1.346
a37= 115.5049
t37= 155.7439
b38=   0.9935
a38= 118.9946
t38= -10.445
b39=   1.4485
a39= 121.6649
t39= 179.2758
b40=   1.0801
a40= 109.8281
t40= -47.8049
b41=   1.0842
a41= 111.6871
t41=  72.5849
b42=   1.0817
a42= 108.7014
t42= -167.0613
