%chk=structure.chk
NProcShared=8
#HF/6-31G* SCF=tight opt=Z-Matrix Freq

Optimization of phi 260.0

0   1
    H
    C    1      b2
    H    2      b3    1      a3
    H    2      b4    3      a4    1      t4
    C    2      b5    4      a5    1      t5
    O    5      b6    2      a6    1      t6
    N    5      b7    2      a7    1      t7
    H    7      b8    5      a8    2      t8
    C    7      b9    5      a9    2      t9
    H    9     b10    7     a10    5     t10
    C    9     b11    7     a11    5     t11
    H   11     b12    9     a12    7     t12
    H   11     b13    9     a13    7     t13
    H   11     b14    9     a14    7     t14
    C    9     b15    7     a15    5     t15
    O   15     b16    9     a16    7     t16
    N   15     b17    9     a17    7     t17
    H   17     b18   15     a18    9     t18
    C   17     b19   15     a19    9     t19
    H   19     b20   17     a20   15     t20
    C   19     b21   17     a21   15     t21
    H   21     b22   19     a22   17     t22
    H   21     b23   19     a23   17     t23
    H   21     b24   19     a24   17     t24
    C   19     b25   17     a25   15     t25
    O   25     b26   19     a26   17     t26
    N   25     b27   19     a27   17     t27
    H   27     b28   25     a28   19     t28
    C   27     b29   25     a29   19     t29
    H   29     b30   27     a30   25     t30
    C   29     b31   27     a31   25     t31
    H   31     b32   29     a32   27     t32
    H   31     b33   29     a33   27     t33
    H   31     b34   29     a34   27     t34
    C   29     b35   27     a35   25     t35
    O   35     b36   29     a36   27     t36
    N   35     b37   29     a37   27     t37
    H   37     b38   35     a38   29     t38
    C   37     b39   35     a39   29     t39
    H   39     b40   37     a40   35     t40
    H   39     b41   37     a41   35     t41
    H   39     b42   37     a42   35     t42
Variables
b2=   1.0853
b3=   1.0833
a3= 108.5871
b4=   1.0811
a4= 109.7111
t4= 117.8818
b5=   1.513
a5= 108.7971
t5= 117.8595
b6=   1.2029
a6= 121.9391
t6=  81.5514
b7=   1.3512
a7= 115.6327
t7= 262.5864
b8=   0.9951
a8= 120.4673
t8=   7.5007
b9=   1.4428
a9= 121.6399
t9= 173.3901
b10=   1.0826
a10= 109.0258
t10= -39.8319
b11=   1.5369
a11= 111.5403
t11=  79.8545
b12=   1.0846
a12= 110.5315
t12=  61.6787
b13=   1.0855
a13= 112.0912
t13= 183.0024
b14=   1.0809
a14= 108.8248
t14= -57.8363
b15=   1.5284
a15= 108.1228
t15= 203.893
b16=   1.1921
a16= 121.2734
t16=  -2.6041
b17=   1.4017
a17= 117.7092
t17= 170.4346
b18=   1.0021
a18= 111.0992
t18=  24.227
b19=   1.4737
a19= 116.9297
t19= 260.0
b20=   1.0824
a20= 106.5088
t20= -50.7654
b21=   1.5249
a21= 115.2623
t21=  71.2477
b22=   1.0827
a22= 111.0721
t22=  56.7994
b23=   1.0845
a23= 109.917
t23= -184.13
b24=   1.084
a24= 111.0073
t24= -65.0489
b25=   1.5292
a25= 104.8453
t25= 193.452
b26=   1.205
a26= 120.8307
t26= -88.2339
b27=   1.3413
a27= 115.7153
t27=  90.0
b28=   0.9966
a28= 120.8148
t28=  -3.7113
b29=   1.4438
a29= 122.2756
t29= -174.822
b30=   1.0824
a30= 107.9146
t30= -41.3236
b31=   1.5347
a31= 112.3461
t31=  79.0187
b32=   1.0843
a32= 110.2576
t32=  60.4604
b33=   1.0851
a33= 111.1245
t33= -179.1257
b34=   1.0821
a34= 109.3881
t34= -59.3424
b35=   1.5257
a35= 107.2741
t35= -159.8865
b36=   1.2032
a36= 121.2863
t36= -27.0913
b37=   1.3451
a37= 115.694
t37= -204.5847
b38=   0.9934
a38= 119.0375
t38=  -9.5372
b39=   1.4486
a39= 121.6938
t39= 179.0361
b40=   1.0803
a40= 109.9301
t40= -49.0047
b41=   1.084
a41= 111.6138
t41=  71.4089
b42=   1.0816
a42= 108.6673
t42= -168.2911
