%chk=structure.chk
NProcShared=8
#HF/6-31G* SCF=tight opt=Z-Matrix Freq

Optimization of phi -162.6991

0   1
    H
    C    1      b2
    H    2      b3    1      a3
    H    2      b4    3      a4    1      t4
    C    2      b5    4      a5    1      t5
    O    5      b6    2      a6    1      t6
    N    5      b7    2      a7    1      t7
    H    7      b8    5      a8    2      t8
    C    7      b9    5      a9    2      t9
    H    9     b10    7     a10    5     t10
    C    9     b11    7     a11    5     t11
    H   11     b12    9     a12    7     t12
    H   11     b13    9     a13    7     t13
    H   11     b14    9     a14    7     t14
    C    9     b15    7     a15    5     t15
    O   15     b16    9     a16    7     t16
    N   15     b17    9     a17    7     t17
    H   17     b18   15     a18    9     t18
    C   17     b19   15     a19    9     t19
    H   19     b20   17     a20   15     t20
    C   19     b21   17     a21   15     t21
    H   21     b22   19     a22   17     t22
    H   21     b23   19     a23   17     t23
    H   21     b24   19     a24   17     t24
    C   19     b25   17     a25   15     t25
    O   25     b26   19     a26   17     t26
    N   25     b27   19     a27   17     t27
    H   27     b28   25     a28   19     t28
    C   27     b29   25     a29   19     t29
    H   29     b30   27     a30   25     t30
    C   29     b31   27     a31   25     t31
    H   31     b32   29     a32   27     t32
    H   31     b33   29     a33   27     t33
    H   31     b34   29     a34   27     t34
    C   29     b35   27     a35   25     t35
    O   35     b36   29     a36   27     t36
    N   35     b37   29     a37   27     t37
    H   37     b38   35     a38   29     t38
    C   37     b39   35     a39   29     t39
    H   39     b40   37     a40   35     t40
    H   39     b41   37     a41   35     t41
    H   39     b42   37     a42   35     t42
Variables
b2=   1.0848
b3=   1.0835
a3= 108.7484
b4=   1.0811
a4= 109.6023
t4= 118.8387
b5=   1.5114
a5= 109.0433
t5= 117.5393
b6=   1.204
a6= 122.0952
t6=  87.8399
b7=   1.3544
a7= 114.8001
t7= 268.3645
b8=   0.9962
a8= 118.8064
t8=  9.8882
b9=   1.4444
a9= 122.8084
t9= 168.9477
b10=   1.0771
a10= 106.9163
t10=  -3.5102
b11=   1.533
a11= 111.6167
t11= 116.4994
b12=   1.0839
a12= 110.3028
t12=  59.2782
b13=   1.0859
a13= 111.5403
t13= 179.6337
b14=   1.083
a14= 109.3876
t14= -60.3389
b15=   1.5284
a15= 107.3662
t15= 236.397
b16=   1.2027
a16= 119.9145
t16= -37.2066
b17=   1.3557
a17= 119.0947
t17= 144.1552
b18=   0.998
a18= 112.8699
t18= 177.0967
b19=   1.4507
a19= 129.589
t19= 360.0
b20=   1.0823
a20= 109.6202
t20=  37.2416
b21=   1.5296
a21= 109.1913
t21= 155.22
b22=   1.0863
a22= 110.7738
t22=  60.6768
b23=   1.0799
a23= 109.8098
t23= -179.7364
b24=   1.0839
a24= 110.1092
t24= -59.3646
b25=   1.5339
a25= 115.6979
t25= 279.338
b26=   1.2049
a26= 118.5752
t26= 178.4482
b27=   1.3391
a27= 117.8596
t27=   0.0
b28=   0.9947
a28= 121.2213
t28=  -1.4635
b29=   1.4448
a29= 121.8509
t29= 172.0233
b30=   1.0811
a30= 107.5276
t30= -28.4512
b31=   1.533
a31= 112.1141
t31=  91.5795
b32=   1.0844
a32= 110.373
t32=  60.5092
b33=   1.0848
a33= 111.0534
t33= 180.9152
b34=   1.0828
a34= 109.311
t34= -59.2908
b35=   1.526
a35= 107.5505
t35= 212.9761
b36=   1.2055
a36= 120.9914
t36= -30.262
b37=   1.3446
a37= 115.2417
t37= 153.4545
b38=   0.9944
a38= 117.4884
t38= -17.91
b39=   1.4483
a39= 121.6893
t39= 184.1263
b40=   1.0793
a40= 109.2789
t40= -43.8521
b41=   1.0837
a41= 111.4071
t41=  76.7629
b42=   1.0821
a42= 108.8376
t42= -162.6991
