%chk=structure.chk
NProcShared=8
#HF/6-31G* SCF=tight opt=Z-Matrix Freq

Optimization of phi -166.4867

0   1
    H
    C    1      b2
    H    2      b3    1      a3
    H    2      b4    3      a4    1      t4
    C    2      b5    4      a5    1      t5
    O    5      b6    2      a6    1      t6
    N    5      b7    2      a7    1      t7
    H    7      b8    5      a8    2      t8
    C    7      b9    5      a9    2      t9
    H    9     b10    7     a10    5     t10
    C    9     b11    7     a11    5     t11
    H   11     b12    9     a12    7     t12
    H   11     b13    9     a13    7     t13
    H   11     b14    9     a14    7     t14
    C    9     b15    7     a15    5     t15
    O   15     b16    9     a16    7     t16
    N   15     b17    9     a17    7     t17
    H   17     b18   15     a18    9     t18
    C   17     b19   15     a19    9     t19
    H   19     b20   17     a20   15     t20
    C   19     b21   17     a21   15     t21
    H   21     b22   19     a22   17     t22
    H   21     b23   19     a23   17     t23
    H   21     b24   19     a24   17     t24
    C   19     b25   17     a25   15     t25
    O   25     b26   19     a26   17     t26
    N   25     b27   19     a27   17     t27
    H   27     b28   25     a28   19     t28
    C   27     b29   25     a29   19     t29
    H   29     b30   27     a30   25     t30
    C   29     b31   27     a31   25     t31
    H   31     b32   29     a32   27     t32
    H   31     b33   29     a33   27     t33
    H   31     b34   29     a34   27     t34
    C   29     b35   27     a35   25     t35
    O   35     b36   29     a36   27     t36
    N   35     b37   29     a37   27     t37
    H   37     b38   35     a38   29     t38
    C   37     b39   35     a39   29     t39
    H   39     b40   37     a40   35     t40
    H   39     b41   37     a41   35     t41
    H   39     b42   37     a42   35     t42
Variables
b2=   1.0832
b3=   1.0836
a3= 109.4582
b4=   1.0826
a4= 109.252
t4= 118.2183
b5=   1.5111
a5= 108.4242
t5= 116.8991
b6=   1.2022
a6= 121.7096
t6=  68.7522
b7=   1.3577
a7= 115.7456
t7= 248.8226
b8=   0.9948
a8= 119.0147
t8=   2.7812
b9=   1.4477
a9= 123.1189
t9= 177.7542
b10=   1.0792
a10= 105.7165
t10=  12.7325
b11=   1.5232
a11= 111.4982
t11= 132.3674
b12=   1.0832
a12= 111.149
t12=  60.7787
b13=   1.0841
a13= 110.6763
t13= 180.2172
b14=   1.0837
a14= 109.6692
t14= -59.8756
b15=   1.5327
a15= 107.6637
t15= 255.382
b16=   1.1928
a16= 121.7358
t16= -99.3489
b17=   1.3997
a17= 115.4735
t17=  69.9271
b18=   1.0036
a18= 106.4641
t18= 202.582
b19=   1.4693
a19= 117.7705
t19= 440.0
b20=   1.0837
a20= 108.1478
t20= -34.244
b21=   1.5292
a21= 112.6045
t21=  85.8553
b22=   1.0864
a22= 110.6785
t22=  61.5508
b23=   1.0809
a23= 110.0915
t23= -178.8438
b24=   1.0843
a24= 110.3435
t24= -58.1373
b25=   1.5299
a25= 112.3198
t25= 211.4106
b26=   1.2055
a26= 119.4947
t26= 180.8097
b27=   1.3394
a27= 116.6966
t27=   0.0
b28=   0.9956
a28= 118.7676
t28=  10.8328
b29=   1.4433
a29= 121.4573
t29= 171.5413
b30=   1.0829
a30= 108.3879
t30= -31.8193
b31=   1.5335
a31= 111.9046
t31=  88.3133
b32=   1.0842
a32= 110.2427
t32=  60.5398
b33=   1.0853
a33= 111.1724
t33= 181.1184
b34=   1.0823
a34= 109.1604
t34= -59.1391
b35=   1.525
a35= 107.6488
t35= 209.3484
b36=   1.2056
a36= 121.4979
t36= -29.6511
b37=   1.3446
a37= 115.5027
t37= 153.4754
b38=   0.9937
a38= 118.4586
t38= -13.4587
b39=   1.4476
a39= 121.7405
t39= 180.9346
b40=   1.0799
a40= 109.6704
t40= -47.3969
b41=   1.0845
a41= 111.7242
t41=  73.1252
b42=   1.0818
a42= 108.7482
t42= -166.4867
