%chk=structure.chk
NProcShared=8
#HF/6-31G* SCF=tight opt=Z-Matrix Freq

Optimization of phi -166.6798

0   1
    H
    C    1      b2
    H    2      b3    1      a3
    H    2      b4    3      a4    1      t4
    C    2      b5    4      a5    1      t5
    O    5      b6    2      a6    1      t6
    N    5      b7    2      a7    1      t7
    H    7      b8    5      a8    2      t8
    C    7      b9    5      a9    2      t9
    H    9     b10    7     a10    5     t10
    C    9     b11    7     a11    5     t11
    H   11     b12    9     a12    7     t12
    H   11     b13    9     a13    7     t13
    H   11     b14    9     a14    7     t14
    C    9     b15    7     a15    5     t15
    O   15     b16    9     a16    7     t16
    N   15     b17    9     a17    7     t17
    H   17     b18   15     a18    9     t18
    C   17     b19   15     a19    9     t19
    H   19     b20   17     a20   15     t20
    C   19     b21   17     a21   15     t21
    H   21     b22   19     a22   17     t22
    H   21     b23   19     a23   17     t23
    H   21     b24   19     a24   17     t24
    C   19     b25   17     a25   15     t25
    O   25     b26   19     a26   17     t26
    N   25     b27   19     a27   17     t27
    H   27     b28   25     a28   19     t28
    C   27     b29   25     a29   19     t29
    H   29     b30   27     a30   25     t30
    C   29     b31   27     a31   25     t31
    H   31     b32   29     a32   27     t32
    H   31     b33   29     a33   27     t33
    H   31     b34   29     a34   27     t34
    C   29     b35   27     a35   25     t35
    O   35     b36   29     a36   27     t36
    N   35     b37   29     a37   27     t37
    H   37     b38   35     a38   29     t38
    C   37     b39   35     a39   29     t39
    H   39     b40   37     a40   35     t40
    H   39     b41   37     a41   35     t41
    H   39     b42   37     a42   35     t42
Variables
b2=   1.0834
b3=   1.0853
a3= 108.4953
b4=   1.0811
a4= 108.1259
t4= 119.002
b5=   1.5133
a5= 108.7708
t5= 123.8895
b6=   1.2036
a6= 121.9198
t6= 155.3926
b7=   1.349
a7= 115.519
t7= 333.7837
b8=   0.9952
a8= 121.1858
t8=   5.0135
b9=   1.442
a9= 122.0886
t9= 179.6056
b10=   1.0807
a10= 107.7789
t10= -35.9922
b11=   1.5355
a11= 112.1379
t11=  84.0144
b12=   1.0844
a12= 110.189
t12=  60.3609
b13=   1.0845
a13= 111.6415
t13= 180.9904
b14=   1.082
a14= 108.8927
t14= -59.101
b15=   1.5245
a15= 107.3442
t15= 204.5317
b16=   1.2011
a16= 120.8604
t16= -22.7179
b17=   1.3632
a17= 118.147
t17= 163.4888
b18=   0.9995
a18= 111.4206
t18= 174.8454
b19=   1.451
a19= 128.3077
t19= 330.0
b20=   1.0812
a20= 109.1218
t20=  45.3295
b21=   1.53
a21= 109.0789
t21= 162.9509
b22=   1.0866
a22= 110.8284
t22=  61.2828
b23=   1.08
a23= 110.0146
t23= -178.9988
b24=   1.0833
a24= 109.8512
t24= -58.4377
b25=   1.5343
a25= 116.1686
t25= 287.1042
b26=   1.2047
a26= 118.6691
t26= 179.0577
b27=   1.3416
a27= 118.3207
t27=   0.0
b28=   0.9957
a28= 122.2918
t28=  -1.8562
b29=   1.446
a29= 121.4018
t29= 177.8662
b30=   1.0821
a30= 107.9207
t30= -37.7304
b31=   1.5341
a31= 112.131
t31=  82.3898
b32=   1.0845
a32= 110.3029
t32=  60.8407
b33=   1.0849
a33= 111.1085
t33= 181.1727
b34=   1.0821
a34= 109.3367
t34= -59.1
b35=   1.5254
a35= 107.376
t35= 203.6294
b36=   1.2032
a36= 121.2056
t36= -25.8075
b37=   1.3449
a37= 115.627
t37= 156.718
b38=   0.9936
a38= 118.8779
t38= -11.0487
b39=   1.4487
a39= 121.6968
t39= 179.8617
b40=   1.08
a40= 109.7572
t40= -47.4628
b41=   1.0842
a41= 111.6927
t41=  72.9509
b42=   1.0816
a42= 108.6975
t42= -166.6798
