%chk=structure.chk
NProcShared=8
#HF/6-31G* SCF=tight opt=Z-Matrix Freq

Optimization of phi -168.8748

0   1
    H
    C    1      b2
    H    2      b3    1      a3
    H    2      b4    3      a4    1      t4
    C    2      b5    4      a5    1      t5
    O    5      b6    2      a6    1      t6
    N    5      b7    2      a7    1      t7
    H    7      b8    5      a8    2      t8
    C    7      b9    5      a9    2      t9
    H    9     b10    7     a10    5     t10
    C    9     b11    7     a11    5     t11
    H   11     b12    9     a12    7     t12
    H   11     b13    9     a13    7     t13
    H   11     b14    9     a14    7     t14
    C    9     b15    7     a15    5     t15
    O   15     b16    9     a16    7     t16
    N   15     b17    9     a17    7     t17
    H   17     b18   15     a18    9     t18
    C   17     b19   15     a19    9     t19
    H   19     b20   17     a20   15     t20
    C   19     b21   17     a21   15     t21
    H   21     b22   19     a22   17     t22
    H   21     b23   19     a23   17     t23
    H   21     b24   19     a24   17     t24
    C   19     b25   17     a25   15     t25
    O   25     b26   19     a26   17     t26
    N   25     b27   19     a27   17     t27
    H   27     b28   25     a28   19     t28
    C   27     b29   25     a29   19     t29
    H   29     b30   27     a30   25     t30
    C   29     b31   27     a31   25     t31
    H   31     b32   29     a32   27     t32
    H   31     b33   29     a33   27     t33
    H   31     b34   29     a34   27     t34
    C   29     b35   27     a35   25     t35
    O   35     b36   29     a36   27     t36
    N   35     b37   29     a37   27     t37
    H   37     b38   35     a38   29     t38
    C   37     b39   35     a39   29     t39
    H   39     b40   37     a40   35     t40
    H   39     b41   37     a41   35     t41
    H   39     b42   37     a42   35     t42
Variables
b2=   1.0818
b3=   1.0832
a3= 109.6256
b4=   1.0847
a4= 108.7268
t4= 117.6894
b5=   1.5132
a5= 108.5446
t5= 117.5875
b6=   1.2037
a6= 121.6778
t6=  42.7989
b7=   1.3487
a7= 115.8144
t7= 221.5848
b8=   0.9951
a8= 121.237
t8=   5.256
b9=   1.4416
a9= 122.0196
t9= 179.2808
b10=   1.0835
a10= 108.2737
t10= -38.8486
b11=   1.5357
a11= 112.2082
t11=  81.3648
b12=   1.0842
a12= 110.6991
t12=  62.9646
b13=   1.0851
a13= 111.606
t13= 183.5443
b14=   1.0816
a14= 108.9246
t14= -57.0146
b15=   1.5262
a15= 107.4755
t15= 203.4192
b16=   1.2014
a16= 121.9987
t16= -15.8549
b17=   1.3559
a17= 115.3278
t17= 165.2591
b18=   0.9957
a18= 117.7272
t18=  -8.6956
b19=   1.4533
a19= 122.3762
t19= 190.0
b20=   1.0806
a20= 107.4908
t20=  17.8377
b21=   1.5285
a21= 110.4514
t21= 137.1859
b22=   1.087
a22= 111.0826
t22=  60.2391
b23=   1.0803
a23= 109.8124
t23= -180.2178
b24=   1.0843
a24= 110.1877
t24= -60.0208
b25=   1.5311
a25= 114.2393
t25= 261.6304
b26=   1.2054
a26= 119.3862
t26= 179.895
b27=   1.3397
a27= 117.258
t27=   0.0
b28=   0.9944
a28= 120.5985
t28=   3.644
b29=   1.4423
a29= 122.2239
t29= 175.3713
b30=   1.0833
a30= 108.4187
t30= -37.5785
b31=   1.5343
a31= 112.0838
t31=  82.6876
b32=   1.0846
a32= 110.2914
t32=  60.9004
b33=   1.085
a33= 111.2812
t33= 181.3886
b34=   1.0819
a34= 109.1789
t34= -58.8535
b35=   1.5266
a35= 107.2012
t35= 203.9515
b36=   1.2044
a36= 121.459
t36= -22.9521
b37=   1.3444
a37= 115.6478
t37= 159.2709
b38=   0.9935
a38= 118.9301
t38=  -9.8315
b39=   1.4487
a39= 121.7084
t39= 179.9397
b40=   1.0803
a40= 109.9252
t40= -49.6291
b41=   1.0839
a41= 111.6166
t41=  70.8198
b42=   1.0816
a42= 108.6478
t42= -168.8748
