%chk=structure.chk
NProcShared=8
#HF/6-31G* SCF=tight opt=Z-Matrix Freq

Optimization of phi -168.6032

0   1
    H
    C    1      b2
    H    2      b3    1      a3
    H    2      b4    3      a4    1      t4
    C    2      b5    4      a5    1      t5
    O    5      b6    2      a6    1      t6
    N    5      b7    2      a7    1      t7
    H    7      b8    5      a8    2      t8
    C    7      b9    5      a9    2      t9
    H    9     b10    7     a10    5     t10
    C    9     b11    7     a11    5     t11
    H   11     b12    9     a12    7     t12
    H   11     b13    9     a13    7     t13
    H   11     b14    9     a14    7     t14
    C    9     b15    7     a15    5     t15
    O   15     b16    9     a16    7     t16
    N   15     b17    9     a17    7     t17
    H   17     b18   15     a18    9     t18
    C   17     b19   15     a19    9     t19
    H   19     b20   17     a20   15     t20
    C   19     b21   17     a21   15     t21
    H   21     b22   19     a22   17     t22
    H   21     b23   19     a23   17     t23
    H   21     b24   19     a24   17     t24
    C   19     b25   17     a25   15     t25
    O   25     b26   19     a26   17     t26
    N   25     b27   19     a27   17     t27
    H   27     b28   25     a28   19     t28
    C   27     b29   25     a29   19     t29
    H   29     b30   27     a30   25     t30
    C   29     b31   27     a31   25     t31
    H   31     b32   29     a32   27     t32
    H   31     b33   29     a33   27     t33
    H   31     b34   29     a34   27     t34
    C   29     b35   27     a35   25     t35
    O   35     b36   29     a36   27     t36
    N   35     b37   29     a37   27     t37
    H   37     b38   35     a38   29     t38
    C   37     b39   35     a39   29     t39
    H   39     b40   37     a40   35     t40
    H   39     b41   37     a41   35     t41
    H   39     b42   37     a42   35     t42
Variables
b2=   1.0816
b3=   1.0832
a3= 109.6549
b4=   1.0847
a4= 108.6662
t4= 117.7224
b5=   1.5127
a5= 108.5434
t5= 117.6184
b6=   1.2031
a6= 121.7998
t6=  41.8225
b7=   1.3511
a7= 115.8669
t7= 220.289
b8=   0.9948
a8= 120.6705
t8=  9.376
b9=   1.4419
a9= 121.6387
t9= 177.2602
b10=   1.085
a10= 108.8615
t10= -40.8115
b11=   1.5369
a11= 111.6538
t11=  78.9368
b12=   1.0846
a12= 110.5774
t12=  62.2095
b13=   1.0856
a13= 112.1538
t13= 183.6533
b14=   1.0808
a14= 108.7648
t14= -57.3199
b15=   1.5263
a15= 108.3361
t15= 202.9905
b16=   1.1892
a16= 121.635
t16=  -4.4008
b17=   1.4108
a17= 117.1083
t17= 168.9628
b18=   0.9994
a18= 110.543
t18=  33.6253
b19=   1.4745
a19= 114.6619
t19= 270.0
b20=   1.086
a20= 110.658
t20=  15.2377
b21=   1.528
a21= 110.3115
t21= 135.3202
b22=   1.0859
a22= 110.5225
t22=  57.3221
b23=   1.0801
a23= 109.7852
t23= -183.0072
b24=   1.0856
a24= 110.6008
t24= -62.963
b25=   1.5312
a25= 112.9259
t25= 257.9204
b26=   1.2074
a26= 118.8542
t26= 179.5405
b27=   1.3348
a27= 117.2847
t27=   0.0
b28=   0.9969
a28= 120.041
t28=   1.0539
b29=   1.4435
a29= 121.7561
t29= 178.5934
b30=   1.083
a30= 108.2626
t30= -40.667
b31=   1.5345
a31= 112.1902
t31=  79.5223
b32=   1.0842
a32= 110.1268
t32=  60.5759
b33=   1.0853
a33= 111.0001
t33= 180.8674
b34=   1.0819
a34= 109.3819
t34= -59.3727
b35=   1.5248
a35= 107.6174
t35= 200.1948
b36=   1.2023
a36= 121.42
t36= -31.3506
b37=   1.3467
a37= 115.5712
t37= 151.5804
b38=   0.9933
a38= 118.9106
t38= -11.3996
b39=   1.448
a39= 121.557
t39= 179.565
b40=   1.0803
a40= 109.8709
t40= -49.3691
b41=   1.0842
a41= 111.6842
t41=  71.0047
b42=   1.0818
a42= 108.6964
t42= -168.6032
