%chk=structure.chk
NProcShared=8
#HF/6-31G* SCF=tight opt=Z-Matrix Freq

Optimization of phi -168.6024

0   1
    H
    C    1      b2
    H    2      b3    1      a3
    H    2      b4    3      a4    1      t4
    C    2      b5    4      a5    1      t5
    O    5      b6    2      a6    1      t6
    N    5      b7    2      a7    1      t7
    H    7      b8    5      a8    2      t8
    C    7      b9    5      a9    2      t9
    H    9     b10    7     a10    5     t10
    C    9     b11    7     a11    5     t11
    H   11     b12    9     a12    7     t12
    H   11     b13    9     a13    7     t13
    H   11     b14    9     a14    7     t14
    C    9     b15    7     a15    5     t15
    O   15     b16    9     a16    7     t16
    N   15     b17    9     a17    7     t17
    H   17     b18   15     a18    9     t18
    C   17     b19   15     a19    9     t19
    H   19     b20   17     a20   15     t20
    C   19     b21   17     a21   15     t21
    H   21     b22   19     a22   17     t22
    H   21     b23   19     a23   17     t23
    H   21     b24   19     a24   17     t24
    C   19     b25   17     a25   15     t25
    O   25     b26   19     a26   17     t26
    N   25     b27   19     a27   17     t27
    H   27     b28   25     a28   19     t28
    C   27     b29   25     a29   19     t29
    H   29     b30   27     a30   25     t30
    C   29     b31   27     a31   25     t31
    H   31     b32   29     a32   27     t32
    H   31     b33   29     a33   27     t33
    H   31     b34   29     a34   27     t34
    C   29     b35   27     a35   25     t35
    O   35     b36   29     a36   27     t36
    N   35     b37   29     a37   27     t37
    H   37     b38   35     a38   29     t38
    C   37     b39   35     a39   29     t39
    H   39     b40   37     a40   35     t40
    H   39     b41   37     a41   35     t41
    H   39     b42   37     a42   35     t42
Variables
b2=   1.0817
b3=   1.0832
a3= 109.6235
b4=   1.0846
a4= 108.7182
t4= 117.6913
b5=   1.5127
a5= 108.5438
t5= 117.5724
b6=   1.2031
a6= 121.7815
t6=  42.994
b7=   1.3508
a7= 115.9016
t7= 221.6293
b8=   0.9946
a8= 120.8099
t8=   7.4276
b9=   1.4421
a9= 121.7152
t9= 177.8999
b10=   1.0838
a10= 108.7141
t10= -40.2753
b11=   1.5373
a11= 111.7227
t11=  79.2584
b12=   1.0847
a12= 110.6349
t12=  62.2009
b13=   1.0856
a13= 112.0256
t13= 183.6825
b14=   1.0809
a14= 108.7608
t14= -57.3406
b15=   1.5264
a15= 108.4162
t15= 202.5919
b16=   1.1874
a16= 121.5682
t16=  -8.356
b17=   1.4195
a17= 117.3335
t17= 166.9977
b18=   1.0003
a18= 110.0823
t18=  43.4371
b19=   1.4729
a19= 114.74
t19= 280.0
b20=   1.0863
a20= 111.0738
t20=  16.4315
b21=   1.5282
a21= 110.4359
t21= 136.6592
b22=   1.0859
a22= 110.4642
t22=  56.757
b23=   1.0801
a23= 109.8552
t23= -183.5118
b24=   1.0857
a24= 110.5686
t24= -63.455
b25=   1.5316
a25= 112.652
t25= 259.1268
b26=   1.2074
a26= 118.8519
t26= 179.2964
b27=   1.3352
a27= 117.3061
t27=   0.0
b28=   0.9973
a28= 120.0518
t28=  -0.4537
b29=   1.4439
a29= 121.6623
t29= 179.3461
b30=   1.0829
a30= 108.1998
t30= -41.3684
b31=   1.5345
a31= 112.2327
t31=  78.811
b32=   1.0842
a32= 110.1106
t32=  60.5232
b33=   1.0854
a33= 110.9589
t33= 180.7726
b34=   1.0819
a34= 109.4174
t34= -59.4727
b35=   1.5246
a35= 107.659
t35= 199.4168
b36=   1.2021
a36= 121.3797
t36= -32.6843
b37=   1.3469
a37= 115.5951
t37= 150.3002
b38=   0.9933
a38= 118.9339
t38= -11.3381
b39=   1.448
a39= 121.5489
t39= 179.4139
b40=   1.0803
a40= 109.8772
t40= -49.3584
b41=   1.0842
a41= 111.6808
t41=  71.0052
b42=   1.0818
a42= 108.6994
t42= -168.6024
