%chk=structure.chk
NProcShared=8
#P hf/6-31G* Opt=(Tight,CalcFC) Freq SCF(Conver=6) Test

Optimization of phi 380

0   1
    H
    C    1      b2
    H    2      b3    1      a3
    H    2      b4    3      a4    1      t4
    C    2      b5    4      a5    1      t5
    O    5      b6    2      a6    1      t6
    N    5      b7    2      a7    1      t7
    H    7      b8    5      a8    2      t8
    C    7      b9    5      a9    2      t9
    H    9     b10    7     a10    5     t10
    C    9     b11    7     a11    5     t11
    H   11     b12    9     a12    7     t12
    H   11     b13    9     a13    7     t13
    H   11     b14    9     a14    7     t14
    C    9     b15    7     a15    5     t15
    O   15     b16    9     a16    7     t16
    N   15     b17    9     a17    7     t17
    H   17     b18   15     a18    9     t18
    C   17     b19   15     a19    9     t19
    H   19     b20   17     a20   15     t20
    C   19     b21   17     a21   15     t21
    H   21     b22   19     a22   17     t22
    H   21     b23   19     a23   17     t23
    H   21     b24   19     a24   17     t24
    C   19     b25   17     a25   15     t25
    O   25     b26   19     a26   17     t26
    N   25     b27   19     a27   17     t27
    H   27     b28   25     a28   19     t28
    C   27     b29   25     a29   19     t29
    H   29     b30   27     a30   25     t30
    C   29     b31   27     a31   25     t31
    H   31     b32   29     a32   27     t32
    H   31     b33   29     a33   27     t33
    H   31     b34   29     a34   27     t34
    C   29     b35   27     a35   25     t35
    O   35     b36   29     a36   27     t36
    N   35     b37   29     a37   27     t37
    H   37     b38   35     a38   29     t38
    C   37     b39   35     a39   29     t39
    H   39     b40   37     a40   35     t40
    H   39     b41   37     a41   35     t41
    H   39     b42   37     a42   35     t42
Variables
b2=   1.0846
b3=   1.0836
a3= 108.7836
b4=   1.0812
a4= 109.5694
t4= 118.7685
b5=   1.5114
a5= 109.0045
t5= 117.3804
b6=   1.2044
a6= 122.0478
t6=  85.6301
b7=   1.3526
a7= 114.97
t7= 266.5601
b8=   0.9956
a8= 119.636
t8=   4.7843
b9=   1.4459
a9= 123.0985
t9= 171.2882
b10=   1.0768
a10= 106.8207
t10= -10.4261
b11=   1.5316
a11= 111.8261
t11= 109.6902
b12=   1.0835
a12= 110.3169
t12=  59.5864
b13=   1.0865
a13= 111.4586
t13= 179.9279
b14=   1.0831
a14= 109.4021
t14= -60.242
b15=   1.5287
a15= 106.5778
t15= 229.9285
b16=   1.2019
a16= 119.7083
t16= -45.3885
b17=   1.359
a17= 119.1233
t17= 131.8625
b18=   0.9985
a18= 112.014
t18= 178.1046
b19=   1.4543
a19= 128.0573
t19= 380.0
b20=   1.0826
a20= 109.9296
t20=  25.5621
b21=   1.5295
a21= 109.5269
t21= 144.0379
b22=   1.0862
a22= 110.7338
t22=  59.9236
b23=   1.08
a23= 109.7649
t23= -180.5179
b24=   1.0842
a24= 110.221
t24= -60.203
b25=   1.5332
a25= 114.8203
t25= 267.8076
b26=   1.2052
a26= 118.7886
t26= 178.4441
b27=   1.338
a27= 117.4376
t27=   0.0
b28=   0.995
a28= 120.7415
t28=  -1.7608
b29=   1.4444
a29= 122.0695
t29= 172.5698
b30=   1.0813
a30= 107.6169
t30= -30.1195
b31=   1.5331
a31= 112.1732
t31=  89.9666
b32=   1.0844
a32= 110.3359
t32=  60.4339
b33=   1.0849
a33= 111.0177
t33= 180.8226
b34=   1.0828
a34= 109.3241
t34= -59.3912
b35=   1.526
a35= 107.4535
t35= 211.2235
b36=   1.2056
a36= 120.9412
t36= -31.5523
b37=   1.3446
a37= 115.3043
t37= 152.1904
b38=   0.9943
a38= 117.4429
t38= -18.1128
b39=   1.4484
a39= 121.5941
t39= 184.4473
b40=   1.0794
a40= 109.3014
t40= -44.7732
b41=   1.0836
a41= 111.3517
t41=  75.8604
b42=   1.0821
a42= 108.8106
t42= -163.5996
