%chk=structure.chk
NProcShared=8
#HF/6-31G* SCF=tight opt=Z-Matrix Freq

Optimization of phi -169.3227

0   1
    H
    C    1      b2
    H    2      b3    1      a3
    H    2      b4    3      a4    1      t4
    C    2      b5    4      a5    1      t5
    O    5      b6    2      a6    1      t6
    N    5      b7    2      a7    1      t7
    H    7      b8    5      a8    2      t8
    C    7      b9    5      a9    2      t9
    H    9     b10    7     a10    5     t10
    C    9     b11    7     a11    5     t11
    H   11     b12    9     a12    7     t12
    H   11     b13    9     a13    7     t13
    H   11     b14    9     a14    7     t14
    C    9     b15    7     a15    5     t15
    O   15     b16    9     a16    7     t16
    N   15     b17    9     a17    7     t17
    H   17     b18   15     a18    9     t18
    C   17     b19   15     a19    9     t19
    H   19     b20   17     a20   15     t20
    C   19     b21   17     a21   15     t21
    H   21     b22   19     a22   17     t22
    H   21     b23   19     a23   17     t23
    H   21     b24   19     a24   17     t24
    C   19     b25   17     a25   15     t25
    O   25     b26   19     a26   17     t26
    N   25     b27   19     a27   17     t27
    H   27     b28   25     a28   19     t28
    C   27     b29   25     a29   19     t29
    H   29     b30   27     a30   25     t30
    C   29     b31   27     a31   25     t31
    H   31     b32   29     a32   27     t32
    H   31     b33   29     a33   27     t33
    H   31     b34   29     a34   27     t34
    C   29     b35   27     a35   25     t35
    O   35     b36   29     a36   27     t36
    N   35     b37   29     a37   27     t37
    H   37     b38   35     a38   29     t38
    C   37     b39   35     a39   29     t39
    H   39     b40   37     a40   35     t40
    H   39     b41   37     a41   35     t41
    H   39     b42   37     a42   35     t42
Variables
b2=   1.0816
b3=   1.0832
a3= 109.6888
b4=   1.0848
a4= 108.6126
t4= 117.7553
b5=   1.5129
a5= 108.5487
t5= 117.6748
b6=   1.2032
a6= 121.7782
t6=  40.5674
b7=   1.3507
a7= 115.7963
t7= 218.8849
b8=   0.9952
a8= 120.6424
t8=  11.1601
b9=   1.4418
a9= 121.5888
t9= 176.7807
b10=   1.085
a10= 108.8143
t10= -40.6918
b11=   1.5359
a11= 111.7127
t11=  79.4459
b12=   1.0843
a12= 110.4093
t12=  61.695
b13=   1.0854
a13= 112.1665
t13= 182.6634
b14=   1.0809
a14= 108.8841
t14= -57.919
b15=   1.5276
a15= 107.8373
t15= 203.626
b16=   1.1966
a16= 121.807
t16=  -1.5221
b17=   1.3765
a17= 116.0433
t17= 173.0955
b18=   0.9984
a18= 113.1725
t18=   4.8854
b19=   1.4643
a19= 119.2603
t19= 230.0
b20=   1.0811
a20= 107.1275
t20= -14.9031
b21=   1.5286
a21= 111.6308
t21= 104.9865
b22=   1.0869
a22= 111.0091
t22=  60.0591
b23=   1.0805
a23= 109.8857
t23= -180.384
b24=   1.0848
a24= 110.3786
t24= -60.1848
b25=   1.5294
a25= 113.2053
t25= 229.865
b26=   1.2058
a26= 119.4411
t26= 180.7306
b27=   1.3394
a27= 117.0267
t27=   0.0
b28=   0.9961
a28= 120.0588
t28=   7.3861
b29=   1.4432
a29= 121.8019
t29= 176.4945
b30=   1.0834
a30= 108.4966
t30= -37.3547
b31=   1.5344
a31= 111.9132
t31=  82.7751
b32=   1.0845
a32= 110.2547
t32=  60.9627
b33=   1.085
a33= 111.2628
t33= 181.4386
b34=   1.082
a34= 109.2212
t34= -58.8133
b35=   1.5261
a35= 107.4857
t35= 204.017
b36=   1.2035
a36= 121.5523
t36= -23.1822
b37=   1.3453
a37= 115.5581
t37= 159.0566
b38=   0.9935
a38= 118.9757
t38=  -9.8497
b39=   1.4485
a39= 121.6526
t39= 179.8614
b40=   1.0804
a40= 109.9555
t40= -50.0671
b41=   1.0839
a41= 111.6209
t41=  70.3697
b42=   1.0816
a42= 108.6474
t42= -169.3227
